    1C
    1UUSER                                                              
    1UDATE              29.june.2020                                    
    1UTIME              22:09:12                                        
    1UHOST                                                              
    1UPGM               CalculiX                                        
    1UVERSION           Version 2.11                             
    1UCOMPILETIME       So 31. Jul 13:26:31 CEST 2016                    
    1UDIR                                                               
    1UDBN                                                               
    1UMAT    1SOLIDMATERIAL                                             
    2C                           520                                     1
 -1         1 0.00000E+00 0.00000E+00 1.00000E+03
 -1         2 0.00000E+00 0.00000E+00 0.00000E+00
 -1         3 0.00000E+00 1.00000E+03 1.00000E+03
 -1         4 0.00000E+00 1.00000E+03 0.00000E+00
 -1         5 8.00000E+03 0.00000E+00 1.00000E+03
 -1         6 8.00000E+03 0.00000E+00 0.00000E+00
 -1         7 8.00000E+03 1.00000E+03 1.00000E+03
 -1         8 8.00000E+03 1.00000E+03 0.00000E+00
 -1         9 0.00000E+00 0.00000E+00 5.00000E+02
 -1        10 0.00000E+00 0.00000E+00 2.50000E+02
 -1        11 0.00000E+00 0.00000E+00 7.50000E+02
 -1        12 0.00000E+00 5.00000E+02 1.00000E+03
 -1        13 0.00000E+00 2.50000E+02 1.00000E+03
 -1        14 0.00000E+00 7.50000E+02 1.00000E+03
 -1        15 0.00000E+00 1.00000E+03 5.00000E+02
 -1        16 0.00000E+00 1.00000E+03 2.50000E+02
 -1        17 0.00000E+00 1.00000E+03 7.50000E+02
 -1        18 0.00000E+00 5.00000E+02 0.00000E+00
 -1        19 0.00000E+00 2.50000E+02 0.00000E+00
 -1        20 0.00000E+00 7.50000E+02 0.00000E+00
 -1        21 8.00000E+03 0.00000E+00 5.00000E+02
 -1        22 8.00000E+03 0.00000E+00 2.50000E+02
 -1        23 8.00000E+03 0.00000E+00 7.50000E+02
 -1        24 8.00000E+03 5.00000E+02 1.00000E+03
 -1        25 8.00000E+03 2.50000E+02 1.00000E+03
 -1        26 8.00000E+03 7.50000E+02 1.00000E+03
 -1        27 8.00000E+03 1.00000E+03 5.00000E+02
 -1        28 8.00000E+03 1.00000E+03 2.50000E+02
 -1        29 8.00000E+03 1.00000E+03 7.50000E+02
 -1        30 8.00000E+03 5.00000E+02 0.00000E+00
 -1        31 8.00000E+03 2.50000E+02 0.00000E+00
 -1        32 8.00000E+03 7.50000E+02 0.00000E+00
 -1        33 8.00000E+02 0.00000E+00 0.00000E+00
 -1        34 1.60000E+03 0.00000E+00 0.00000E+00
 -1        35 2.40000E+03 0.00000E+00 0.00000E+00
 -1        36 3.20000E+03 0.00000E+00 0.00000E+00
 -1        37 4.00000E+03 0.00000E+00 0.00000E+00
 -1        38 4.80000E+03 0.00000E+00 0.00000E+00
 -1        39 5.60000E+03 0.00000E+00 0.00000E+00
 -1        40 6.40000E+03 0.00000E+00 0.00000E+00
 -1        41 7.20000E+03 0.00000E+00 0.00000E+00
 -1        42 4.00000E+02 0.00000E+00 0.00000E+00
 -1        43 1.20000E+03 0.00000E+00 0.00000E+00
 -1        44 2.00000E+03 0.00000E+00 0.00000E+00
 -1        45 2.80000E+03 0.00000E+00 0.00000E+00
 -1        46 3.60000E+03 0.00000E+00 0.00000E+00
 -1        47 4.40000E+03 0.00000E+00 0.00000E+00
 -1        48 5.20000E+03 0.00000E+00 0.00000E+00
 -1        49 6.00000E+03 0.00000E+00 0.00000E+00
 -1        50 6.80000E+03 0.00000E+00 0.00000E+00
 -1        51 7.60000E+03 0.00000E+00 0.00000E+00
 -1        52 8.00000E+02 0.00000E+00 1.00000E+03
 -1        53 1.60000E+03 0.00000E+00 1.00000E+03
 -1        54 2.40000E+03 0.00000E+00 1.00000E+03
 -1        55 3.20000E+03 0.00000E+00 1.00000E+03
 -1        56 4.00000E+03 0.00000E+00 1.00000E+03
 -1        57 4.80000E+03 0.00000E+00 1.00000E+03
 -1        58 5.60000E+03 0.00000E+00 1.00000E+03
 -1        59 6.40000E+03 0.00000E+00 1.00000E+03
 -1        60 7.20000E+03 0.00000E+00 1.00000E+03
 -1        61 4.00000E+02 0.00000E+00 1.00000E+03
 -1        62 1.20000E+03 0.00000E+00 1.00000E+03
 -1        63 2.00000E+03 0.00000E+00 1.00000E+03
 -1        64 2.80000E+03 0.00000E+00 1.00000E+03
 -1        65 3.60000E+03 0.00000E+00 1.00000E+03
 -1        66 4.40000E+03 0.00000E+00 1.00000E+03
 -1        67 5.20000E+03 0.00000E+00 1.00000E+03
 -1        68 6.00000E+03 0.00000E+00 1.00000E+03
 -1        69 6.80000E+03 0.00000E+00 1.00000E+03
 -1        70 7.60000E+03 0.00000E+00 1.00000E+03
 -1        71 8.00000E+02 1.00000E+03 0.00000E+00
 -1        72 1.60000E+03 1.00000E+03 0.00000E+00
 -1        73 2.40000E+03 1.00000E+03 0.00000E+00
 -1        74 3.20000E+03 1.00000E+03 0.00000E+00
 -1        75 4.00000E+03 1.00000E+03 0.00000E+00
 -1        76 4.80000E+03 1.00000E+03 0.00000E+00
 -1        77 5.60000E+03 1.00000E+03 0.00000E+00
 -1        78 6.40000E+03 1.00000E+03 0.00000E+00
 -1        79 7.20000E+03 1.00000E+03 0.00000E+00
 -1        80 4.00000E+02 1.00000E+03 0.00000E+00
 -1        81 1.20000E+03 1.00000E+03 0.00000E+00
 -1        82 2.00000E+03 1.00000E+03 0.00000E+00
 -1        83 2.80000E+03 1.00000E+03 0.00000E+00
 -1        84 3.60000E+03 1.00000E+03 0.00000E+00
 -1        85 4.40000E+03 1.00000E+03 0.00000E+00
 -1        86 5.20000E+03 1.00000E+03 0.00000E+00
 -1        87 6.00000E+03 1.00000E+03 0.00000E+00
 -1        88 6.80000E+03 1.00000E+03 0.00000E+00
 -1        89 7.60000E+03 1.00000E+03 0.00000E+00
 -1        90 8.00000E+02 1.00000E+03 1.00000E+03
 -1        91 1.60000E+03 1.00000E+03 1.00000E+03
 -1        92 2.40000E+03 1.00000E+03 1.00000E+03
 -1        93 3.20000E+03 1.00000E+03 1.00000E+03
 -1        94 4.00000E+03 1.00000E+03 1.00000E+03
 -1        95 4.80000E+03 1.00000E+03 1.00000E+03
 -1        96 5.60000E+03 1.00000E+03 1.00000E+03
 -1        97 6.40000E+03 1.00000E+03 1.00000E+03
 -1        98 7.20000E+03 1.00000E+03 1.00000E+03
 -1        99 4.00000E+02 1.00000E+03 1.00000E+03
 -1       100 1.20000E+03 1.00000E+03 1.00000E+03
 -1       101 2.00000E+03 1.00000E+03 1.00000E+03
 -1       102 2.80000E+03 1.00000E+03 1.00000E+03
 -1       103 3.60000E+03 1.00000E+03 1.00000E+03
 -1       104 4.40000E+03 1.00000E+03 1.00000E+03
 -1       105 5.20000E+03 1.00000E+03 1.00000E+03
 -1       106 6.00000E+03 1.00000E+03 1.00000E+03
 -1       107 6.80000E+03 1.00000E+03 1.00000E+03
 -1       108 7.60000E+03 1.00000E+03 1.00000E+03
 -1       109 0.00000E+00 5.00000E+02 5.00000E+02
 -1       110 0.00000E+00 2.50000E+02 7.50000E+02
 -1       111 0.00000E+00 7.50000E+02 2.50000E+02
 -1       112 0.00000E+00 7.50000E+02 7.50000E+02
 -1       113 0.00000E+00 2.50000E+02 2.50000E+02
 -1       114 0.00000E+00 1.25000E+02 6.25000E+02
 -1       115 0.00000E+00 1.25000E+02 8.75000E+02
 -1       116 0.00000E+00 3.75000E+02 8.75000E+02
 -1       117 0.00000E+00 1.25000E+02 3.75000E+02
 -1       118 0.00000E+00 1.25000E+02 1.25000E+02
 -1       119 0.00000E+00 3.75000E+02 1.25000E+02
 -1       120 0.00000E+00 6.25000E+02 8.75000E+02
 -1       121 0.00000E+00 8.75000E+02 8.75000E+02
 -1       122 0.00000E+00 8.75000E+02 6.25000E+02
 -1       123 0.00000E+00 8.75000E+02 3.75000E+02
 -1       124 0.00000E+00 8.75000E+02 1.25000E+02
 -1       125 0.00000E+00 6.25000E+02 1.25000E+02
 -1       126 0.00000E+00 3.75000E+02 6.25000E+02
 -1       127 0.00000E+00 2.50000E+02 5.00000E+02
 -1       128 0.00000E+00 3.75000E+02 3.75000E+02
 -1       129 0.00000E+00 5.00000E+02 7.50000E+02
 -1       130 0.00000E+00 6.25000E+02 6.25000E+02
 -1       131 0.00000E+00 6.25000E+02 3.75000E+02
 -1       132 0.00000E+00 7.50000E+02 5.00000E+02
 -1       133 0.00000E+00 5.00000E+02 2.50000E+02
 -1       134 8.00000E+03 5.00000E+02 5.00000E+02
 -1       135 8.00000E+03 2.50000E+02 7.50000E+02
 -1       136 8.00000E+03 7.50000E+02 2.50000E+02
 -1       137 8.00000E+03 7.50000E+02 7.50000E+02
 -1       138 8.00000E+03 2.50000E+02 2.50000E+02
 -1       139 8.00000E+03 1.25000E+02 6.25000E+02
 -1       140 8.00000E+03 1.25000E+02 8.75000E+02
 -1       141 8.00000E+03 3.75000E+02 8.75000E+02
 -1       142 8.00000E+03 1.25000E+02 1.25000E+02
 -1       143 8.00000E+03 1.25000E+02 3.75000E+02
 -1       144 8.00000E+03 3.75000E+02 1.25000E+02
 -1       145 8.00000E+03 6.25000E+02 8.75000E+02
 -1       146 8.00000E+03 8.75000E+02 8.75000E+02
 -1       147 8.00000E+03 8.75000E+02 6.25000E+02
 -1       148 8.00000E+03 8.75000E+02 3.75000E+02
 -1       149 8.00000E+03 8.75000E+02 1.25000E+02
 -1       150 8.00000E+03 6.25000E+02 1.25000E+02
 -1       151 8.00000E+03 2.50000E+02 5.00000E+02
 -1       152 8.00000E+03 3.75000E+02 6.25000E+02
 -1       153 8.00000E+03 3.75000E+02 3.75000E+02
 -1       154 8.00000E+03 5.00000E+02 7.50000E+02
 -1       155 8.00000E+03 6.25000E+02 6.25000E+02
 -1       156 8.00000E+03 7.50000E+02 5.00000E+02
 -1       157 8.00000E+03 6.25000E+02 3.75000E+02
 -1       158 8.00000E+03 5.00000E+02 2.50000E+02
 -1       159 6.00000E+03 0.00000E+00 5.00000E+02
 -1       160 6.80000E+03 0.00000E+00 5.00000E+02
 -1       161 3.60000E+03 0.00000E+00 5.00000E+02
 -1       162 5.20000E+03 0.00000E+00 5.00000E+02
 -1       163 2.00000E+03 0.00000E+00 5.00000E+02
 -1       164 4.40000E+03 0.00000E+00 5.00000E+02
 -1       165 1.20000E+03 0.00000E+00 5.00000E+02
 -1       166 2.80000E+03 0.00000E+00 5.00000E+02
 -1       167 7.50774E+03 0.00000E+00 5.00000E+02
 -1       168 4.92262E+02 0.00000E+00 5.00000E+02
 -1       169 2.46131E+02 0.00000E+00 5.00000E+02
 -1       170 2.46131E+02 0.00000E+00 7.50000E+02
 -1       171 6.46131E+02 0.00000E+00 7.50000E+02
 -1       172 2.46131E+02 0.00000E+00 2.50000E+02
 -1       173 6.46131E+02 0.00000E+00 2.50000E+02
 -1       174 7.75387E+03 0.00000E+00 5.00000E+02
 -1       175 7.75387E+03 0.00000E+00 7.50000E+02
 -1       176 7.35387E+03 0.00000E+00 7.50000E+02
 -1       177 7.75387E+03 0.00000E+00 2.50000E+02
 -1       178 7.35387E+03 0.00000E+00 2.50000E+02
 -1       179 1.40000E+03 0.00000E+00 2.50000E+02
 -1       180 1.00000E+03 0.00000E+00 2.50000E+02
 -1       181 8.46131E+02 0.00000E+00 5.00000E+02
 -1       182 2.20000E+03 0.00000E+00 2.50000E+02
 -1       183 1.80000E+03 0.00000E+00 2.50000E+02
 -1       184 1.60000E+03 0.00000E+00 5.00000E+02
 -1       185 3.00000E+03 0.00000E+00 2.50000E+02
 -1       186 2.60000E+03 0.00000E+00 2.50000E+02
 -1       187 2.40000E+03 0.00000E+00 5.00000E+02
 -1       188 3.80000E+03 0.00000E+00 2.50000E+02
 -1       189 3.40000E+03 0.00000E+00 2.50000E+02
 -1       190 3.20000E+03 0.00000E+00 5.00000E+02
 -1       191 4.60000E+03 0.00000E+00 2.50000E+02
 -1       192 4.20000E+03 0.00000E+00 2.50000E+02
 -1       193 4.00000E+03 0.00000E+00 5.00000E+02
 -1       194 5.40000E+03 0.00000E+00 2.50000E+02
 -1       195 5.00000E+03 0.00000E+00 2.50000E+02
 -1       196 4.80000E+03 0.00000E+00 5.00000E+02
 -1       197 6.20000E+03 0.00000E+00 2.50000E+02
 -1       198 5.80000E+03 0.00000E+00 2.50000E+02
 -1       199 5.60000E+03 0.00000E+00 5.00000E+02
 -1       200 7.00000E+03 0.00000E+00 2.50000E+02
 -1       201 6.60000E+03 0.00000E+00 2.50000E+02
 -1       202 6.40000E+03 0.00000E+00 5.00000E+02
 -1       203 7.15387E+03 0.00000E+00 5.00000E+02
 -1       204 1.40000E+03 0.00000E+00 7.50000E+02
 -1       205 1.00000E+03 0.00000E+00 7.50000E+02
 -1       206 2.20000E+03 0.00000E+00 7.50000E+02
 -1       207 1.80000E+03 0.00000E+00 7.50000E+02
 -1       208 3.00000E+03 0.00000E+00 7.50000E+02
 -1       209 2.60000E+03 0.00000E+00 7.50000E+02
 -1       210 3.80000E+03 0.00000E+00 7.50000E+02
 -1       211 3.40000E+03 0.00000E+00 7.50000E+02
 -1       212 4.60000E+03 0.00000E+00 7.50000E+02
 -1       213 4.20000E+03 0.00000E+00 7.50000E+02
 -1       214 5.40000E+03 0.00000E+00 7.50000E+02
 -1       215 5.00000E+03 0.00000E+00 7.50000E+02
 -1       216 6.20000E+03 0.00000E+00 7.50000E+02
 -1       217 5.80000E+03 0.00000E+00 7.50000E+02
 -1       218 7.00000E+03 0.00000E+00 7.50000E+02
 -1       219 6.60000E+03 0.00000E+00 7.50000E+02
 -1       220 6.00000E+03 1.00000E+03 5.00000E+02
 -1       221 6.80000E+03 1.00000E+03 5.00000E+02
 -1       222 3.60000E+03 1.00000E+03 5.00000E+02
 -1       223 5.20000E+03 1.00000E+03 5.00000E+02
 -1       224 2.00000E+03 1.00000E+03 5.00000E+02
 -1       225 4.40000E+03 1.00000E+03 5.00000E+02
 -1       226 1.20000E+03 1.00000E+03 5.00000E+02
 -1       227 2.80000E+03 1.00000E+03 5.00000E+02
 -1       228 7.50774E+03 1.00000E+03 5.00000E+02
 -1       229 4.92262E+02 1.00000E+03 5.00000E+02
 -1       230 2.46131E+02 1.00000E+03 7.50000E+02
 -1       231 2.46131E+02 1.00000E+03 5.00000E+02
 -1       232 6.46131E+02 1.00000E+03 7.50000E+02
 -1       233 2.46131E+02 1.00000E+03 2.50000E+02
 -1       234 6.46131E+02 1.00000E+03 2.50000E+02
 -1       235 7.75387E+03 1.00000E+03 5.00000E+02
 -1       236 7.75387E+03 1.00000E+03 7.50000E+02
 -1       237 7.35387E+03 1.00000E+03 7.50000E+02
 -1       238 7.75387E+03 1.00000E+03 2.50000E+02
 -1       239 7.35387E+03 1.00000E+03 2.50000E+02
 -1       240 1.00000E+03 1.00000E+03 2.50000E+02
 -1       241 1.40000E+03 1.00000E+03 2.50000E+02
 -1       242 8.46131E+02 1.00000E+03 5.00000E+02
 -1       243 1.80000E+03 1.00000E+03 2.50000E+02
 -1       244 2.20000E+03 1.00000E+03 2.50000E+02
 -1       245 1.60000E+03 1.00000E+03 5.00000E+02
 -1       246 2.60000E+03 1.00000E+03 2.50000E+02
 -1       247 3.00000E+03 1.00000E+03 2.50000E+02
 -1       248 2.40000E+03 1.00000E+03 5.00000E+02
 -1       249 3.40000E+03 1.00000E+03 2.50000E+02
 -1       250 3.80000E+03 1.00000E+03 2.50000E+02
 -1       251 3.20000E+03 1.00000E+03 5.00000E+02
 -1       252 4.20000E+03 1.00000E+03 2.50000E+02
 -1       253 4.60000E+03 1.00000E+03 2.50000E+02
 -1       254 4.00000E+03 1.00000E+03 5.00000E+02
 -1       255 5.00000E+03 1.00000E+03 2.50000E+02
 -1       256 5.40000E+03 1.00000E+03 2.50000E+02
 -1       257 4.80000E+03 1.00000E+03 5.00000E+02
 -1       258 5.80000E+03 1.00000E+03 2.50000E+02
 -1       259 6.20000E+03 1.00000E+03 2.50000E+02
 -1       260 5.60000E+03 1.00000E+03 5.00000E+02
 -1       261 6.60000E+03 1.00000E+03 2.50000E+02
 -1       262 7.00000E+03 1.00000E+03 2.50000E+02
 -1       263 6.40000E+03 1.00000E+03 5.00000E+02
 -1       264 7.15387E+03 1.00000E+03 5.00000E+02
 -1       265 1.40000E+03 1.00000E+03 7.50000E+02
 -1       266 1.00000E+03 1.00000E+03 7.50000E+02
 -1       267 2.20000E+03 1.00000E+03 7.50000E+02
 -1       268 1.80000E+03 1.00000E+03 7.50000E+02
 -1       269 3.00000E+03 1.00000E+03 7.50000E+02
 -1       270 2.60000E+03 1.00000E+03 7.50000E+02
 -1       271 3.80000E+03 1.00000E+03 7.50000E+02
 -1       272 3.40000E+03 1.00000E+03 7.50000E+02
 -1       273 4.60000E+03 1.00000E+03 7.50000E+02
 -1       274 4.20000E+03 1.00000E+03 7.50000E+02
 -1       275 5.40000E+03 1.00000E+03 7.50000E+02
 -1       276 5.00000E+03 1.00000E+03 7.50000E+02
 -1       277 6.20000E+03 1.00000E+03 7.50000E+02
 -1       278 5.80000E+03 1.00000E+03 7.50000E+02
 -1       279 7.00000E+03 1.00000E+03 7.50000E+02
 -1       280 6.60000E+03 1.00000E+03 7.50000E+02
 -1       281 6.80000E+03 5.00000E+02 0.00000E+00
 -1       282 6.00000E+03 5.00000E+02 0.00000E+00
 -1       283 4.40000E+03 5.00000E+02 0.00000E+00
 -1       284 1.20000E+03 5.00000E+02 0.00000E+00
 -1       285 2.80000E+03 5.00000E+02 0.00000E+00
 -1       286 3.60000E+03 5.00000E+02 0.00000E+00
 -1       287 5.20000E+03 5.00000E+02 0.00000E+00
 -1       288 2.00000E+03 5.00000E+02 0.00000E+00
 -1       289 7.50774E+03 5.00000E+02 0.00000E+00
 -1       290 4.92262E+02 5.00000E+02 0.00000E+00
 -1       291 2.46131E+02 5.00000E+02 0.00000E+00
 -1       292 2.46131E+02 2.50000E+02 0.00000E+00
 -1       293 6.46131E+02 2.50000E+02 0.00000E+00
 -1       294 2.46131E+02 7.50000E+02 0.00000E+00
 -1       295 6.46131E+02 7.50000E+02 0.00000E+00
 -1       296 7.75387E+03 5.00000E+02 0.00000E+00
 -1       297 7.75387E+03 2.50000E+02 0.00000E+00
 -1       298 7.35387E+03 2.50000E+02 0.00000E+00
 -1       299 7.75387E+03 7.50000E+02 0.00000E+00
 -1       300 7.35387E+03 7.50000E+02 0.00000E+00
 -1       301 1.40000E+03 2.50000E+02 0.00000E+00
 -1       302 1.00000E+03 2.50000E+02 0.00000E+00
 -1       303 8.46131E+02 5.00000E+02 0.00000E+00
 -1       304 2.20000E+03 2.50000E+02 0.00000E+00
 -1       305 1.80000E+03 2.50000E+02 0.00000E+00
 -1       306 1.60000E+03 5.00000E+02 0.00000E+00
 -1       307 3.00000E+03 2.50000E+02 0.00000E+00
 -1       308 2.60000E+03 2.50000E+02 0.00000E+00
 -1       309 2.40000E+03 5.00000E+02 0.00000E+00
 -1       310 3.80000E+03 2.50000E+02 0.00000E+00
 -1       311 3.40000E+03 2.50000E+02 0.00000E+00
 -1       312 3.20000E+03 5.00000E+02 0.00000E+00
 -1       313 4.60000E+03 2.50000E+02 0.00000E+00
 -1       314 4.20000E+03 2.50000E+02 0.00000E+00
 -1       315 4.00000E+03 5.00000E+02 0.00000E+00
 -1       316 5.40000E+03 2.50000E+02 0.00000E+00
 -1       317 5.00000E+03 2.50000E+02 0.00000E+00
 -1       318 4.80000E+03 5.00000E+02 0.00000E+00
 -1       319 6.20000E+03 2.50000E+02 0.00000E+00
 -1       320 5.80000E+03 2.50000E+02 0.00000E+00
 -1       321 5.60000E+03 5.00000E+02 0.00000E+00
 -1       322 7.00000E+03 2.50000E+02 0.00000E+00
 -1       323 6.60000E+03 2.50000E+02 0.00000E+00
 -1       324 6.40000E+03 5.00000E+02 0.00000E+00
 -1       325 7.15387E+03 5.00000E+02 0.00000E+00
 -1       326 1.40000E+03 7.50000E+02 0.00000E+00
 -1       327 1.00000E+03 7.50000E+02 0.00000E+00
 -1       328 2.20000E+03 7.50000E+02 0.00000E+00
 -1       329 1.80000E+03 7.50000E+02 0.00000E+00
 -1       330 3.00000E+03 7.50000E+02 0.00000E+00
 -1       331 2.60000E+03 7.50000E+02 0.00000E+00
 -1       332 3.80000E+03 7.50000E+02 0.00000E+00
 -1       333 3.40000E+03 7.50000E+02 0.00000E+00
 -1       334 4.60000E+03 7.50000E+02 0.00000E+00
 -1       335 4.20000E+03 7.50000E+02 0.00000E+00
 -1       336 5.40000E+03 7.50000E+02 0.00000E+00
 -1       337 5.00000E+03 7.50000E+02 0.00000E+00
 -1       338 6.20000E+03 7.50000E+02 0.00000E+00
 -1       339 5.80000E+03 7.50000E+02 0.00000E+00
 -1       340 7.00000E+03 7.50000E+02 0.00000E+00
 -1       341 6.60000E+03 7.50000E+02 0.00000E+00
 -1       342 6.80000E+03 5.00000E+02 1.00000E+03
 -1       343 6.00000E+03 5.00000E+02 1.00000E+03
 -1       344 5.20000E+03 5.00000E+02 1.00000E+03
 -1       345 2.80000E+03 5.00000E+02 1.00000E+03
 -1       346 3.60000E+03 5.00000E+02 1.00000E+03
 -1       347 4.40000E+03 5.00000E+02 1.00000E+03
 -1       348 1.20000E+03 5.00000E+02 1.00000E+03
 -1       349 2.00000E+03 5.00000E+02 1.00000E+03
 -1       350 7.50774E+03 5.00000E+02 1.00000E+03
 -1       351 4.92262E+02 5.00000E+02 1.00000E+03
 -1       352 2.46131E+02 2.50000E+02 1.00000E+03
 -1       353 2.46131E+02 5.00000E+02 1.00000E+03
 -1       354 6.46131E+02 2.50000E+02 1.00000E+03
 -1       355 2.46131E+02 7.50000E+02 1.00000E+03
 -1       356 6.46131E+02 7.50000E+02 1.00000E+03
 -1       357 7.75387E+03 5.00000E+02 1.00000E+03
 -1       358 7.75387E+03 2.50000E+02 1.00000E+03
 -1       359 7.35387E+03 2.50000E+02 1.00000E+03
 -1       360 7.75387E+03 7.50000E+02 1.00000E+03
 -1       361 7.35387E+03 7.50000E+02 1.00000E+03
 -1       362 1.40000E+03 2.50000E+02 1.00000E+03
 -1       363 1.00000E+03 2.50000E+02 1.00000E+03
 -1       364 8.46131E+02 5.00000E+02 1.00000E+03
 -1       365 2.20000E+03 2.50000E+02 1.00000E+03
 -1       366 1.80000E+03 2.50000E+02 1.00000E+03
 -1       367 1.60000E+03 5.00000E+02 1.00000E+03
 -1       368 3.00000E+03 2.50000E+02 1.00000E+03
 -1       369 2.60000E+03 2.50000E+02 1.00000E+03
 -1       370 2.40000E+03 5.00000E+02 1.00000E+03
 -1       371 3.80000E+03 2.50000E+02 1.00000E+03
 -1       372 3.40000E+03 2.50000E+02 1.00000E+03
 -1       373 3.20000E+03 5.00000E+02 1.00000E+03
 -1       374 4.60000E+03 2.50000E+02 1.00000E+03
 -1       375 4.20000E+03 2.50000E+02 1.00000E+03
 -1       376 4.00000E+03 5.00000E+02 1.00000E+03
 -1       377 5.40000E+03 2.50000E+02 1.00000E+03
 -1       378 5.00000E+03 2.50000E+02 1.00000E+03
 -1       379 4.80000E+03 5.00000E+02 1.00000E+03
 -1       380 6.20000E+03 2.50000E+02 1.00000E+03
 -1       381 5.80000E+03 2.50000E+02 1.00000E+03
 -1       382 5.60000E+03 5.00000E+02 1.00000E+03
 -1       383 7.00000E+03 2.50000E+02 1.00000E+03
 -1       384 6.60000E+03 2.50000E+02 1.00000E+03
 -1       385 6.40000E+03 5.00000E+02 1.00000E+03
 -1       386 7.15387E+03 5.00000E+02 1.00000E+03
 -1       387 1.00000E+03 7.50000E+02 1.00000E+03
 -1       388 1.40000E+03 7.50000E+02 1.00000E+03
 -1       389 1.80000E+03 7.50000E+02 1.00000E+03
 -1       390 2.20000E+03 7.50000E+02 1.00000E+03
 -1       391 2.60000E+03 7.50000E+02 1.00000E+03
 -1       392 3.00000E+03 7.50000E+02 1.00000E+03
 -1       393 3.40000E+03 7.50000E+02 1.00000E+03
 -1       394 3.80000E+03 7.50000E+02 1.00000E+03
 -1       395 4.20000E+03 7.50000E+02 1.00000E+03
 -1       396 4.60000E+03 7.50000E+02 1.00000E+03
 -1       397 5.00000E+03 7.50000E+02 1.00000E+03
 -1       398 5.40000E+03 7.50000E+02 1.00000E+03
 -1       399 5.80000E+03 7.50000E+02 1.00000E+03
 -1       400 6.20000E+03 7.50000E+02 1.00000E+03
 -1       401 6.60000E+03 7.50000E+02 1.00000E+03
 -1       402 7.00000E+03 7.50000E+02 1.00000E+03
 -1       403 7.15387E+03 5.00000E+02 5.00000E+02
 -1       404 7.50774E+03 5.00000E+02 5.00000E+02
 -1       405 7.50774E+03 2.50000E+02 2.50000E+02
 -1       406 7.50774E+03 7.50000E+02 2.50000E+02
 -1       407 7.15387E+03 2.50000E+02 2.50000E+02
 -1       408 7.15387E+03 2.50000E+02 7.50000E+02
 -1       409 7.15387E+03 7.50000E+02 7.50000E+02
 -1       410 7.50774E+03 7.50000E+02 7.50000E+02
 -1       411 7.50774E+03 2.50000E+02 7.50000E+02
 -1       412 8.46131E+02 7.50000E+02 2.50000E+02
 -1       413 4.92262E+02 7.50000E+02 2.50000E+02
 -1       414 4.92262E+02 2.50000E+02 2.50000E+02
 -1       415 4.92262E+02 5.00000E+02 5.00000E+02
 -1       416 8.46131E+02 2.50000E+02 2.50000E+02
 -1       417 4.92262E+02 7.50000E+02 7.50000E+02
 -1       418 8.46131E+02 7.50000E+02 7.50000E+02
 -1       419 4.92262E+02 2.50000E+02 7.50000E+02
 -1       420 8.46131E+02 2.50000E+02 7.50000E+02
 -1       421 6.80000E+03 5.00000E+02 5.00000E+02
 -1       422 7.15387E+03 7.50000E+02 2.50000E+02
 -1       423 6.80000E+03 2.50000E+02 7.50000E+02
 -1       424 1.20000E+03 5.00000E+02 5.00000E+02
 -1       425 6.40000E+03 5.00000E+02 5.00000E+02
 -1       426 6.40000E+03 7.50000E+02 2.50000E+02
 -1       427 6.80000E+03 2.50000E+02 2.50000E+02
 -1       428 6.40000E+03 2.50000E+02 2.50000E+02
 -1       429 6.00000E+03 7.50000E+02 2.50000E+02
 -1       430 5.60000E+03 7.50000E+02 7.50000E+02
 -1       431 5.60000E+03 5.00000E+02 5.00000E+02
 -1       432 6.00000E+03 5.00000E+02 5.00000E+02
 -1       433 6.00000E+03 7.50000E+02 7.50000E+02
 -1       434 5.60000E+03 7.50000E+02 2.50000E+02
 -1       435 5.20000E+03 7.50000E+02 7.50000E+02
 -1       436 6.80000E+03 7.50000E+02 7.50000E+02
 -1       437 6.40000E+03 7.50000E+02 7.50000E+02
 -1       438 6.80000E+03 7.50000E+02 2.50000E+02
 -1       439 5.20000E+03 7.50000E+02 2.50000E+02
 -1       440 5.20000E+03 5.00000E+02 5.00000E+02
 -1       441 6.40000E+03 2.50000E+02 7.50000E+02
 -1       442 1.60000E+03 2.50000E+02 2.50000E+02
 -1       443 1.60000E+03 2.50000E+02 7.50000E+02
 -1       444 1.20000E+03 2.50000E+02 7.50000E+02
 -1       445 1.20000E+03 2.50000E+02 2.50000E+02
 -1       446 2.00000E+03 7.50000E+02 2.50000E+02
 -1       447 1.60000E+03 5.00000E+02 5.00000E+02
 -1       448 1.60000E+03 7.50000E+02 7.50000E+02
 -1       449 1.20000E+03 7.50000E+02 7.50000E+02
 -1       450 1.60000E+03 7.50000E+02 2.50000E+02
 -1       451 6.00000E+03 2.50000E+02 2.50000E+02
 -1       452 6.00000E+03 2.50000E+02 7.50000E+02
 -1       453 5.60000E+03 2.50000E+02 7.50000E+02
 -1       454 2.00000E+03 5.00000E+02 5.00000E+02
 -1       455 2.00000E+03 7.50000E+02 7.50000E+02
 -1       456 4.80000E+03 7.50000E+02 7.50000E+02
 -1       457 4.40000E+03 5.00000E+02 5.00000E+02
 -1       458 4.80000E+03 7.50000E+02 2.50000E+02
 -1       459 4.80000E+03 5.00000E+02 5.00000E+02
 -1       460 5.20000E+03 2.50000E+02 7.50000E+02
 -1       461 5.20000E+03 2.50000E+02 2.50000E+02
 -1       462 4.80000E+03 2.50000E+02 7.50000E+02
 -1       463 5.60000E+03 2.50000E+02 2.50000E+02
 -1       464 4.40000E+03 7.50000E+02 7.50000E+02
 -1       465 4.40000E+03 7.50000E+02 2.50000E+02
 -1       466 4.80000E+03 2.50000E+02 2.50000E+02
 -1       467 4.40000E+03 2.50000E+02 7.50000E+02
 -1       468 4.40000E+03 2.50000E+02 2.50000E+02
 -1       469 4.00000E+03 5.00000E+02 5.00000E+02
 -1       470 4.00000E+03 2.50000E+02 2.50000E+02
 -1       471 1.20000E+03 7.50000E+02 2.50000E+02
 -1       472 2.40000E+03 2.50000E+02 2.50000E+02
 -1       473 2.80000E+03 2.50000E+02 7.50000E+02
 -1       474 2.40000E+03 5.00000E+02 5.00000E+02
 -1       475 2.40000E+03 2.50000E+02 7.50000E+02
 -1       476 4.00000E+03 7.50000E+02 2.50000E+02
 -1       477 4.00000E+03 7.50000E+02 7.50000E+02
 -1       478 3.60000E+03 7.50000E+02 2.50000E+02
 -1       479 3.60000E+03 7.50000E+02 7.50000E+02
 -1       480 3.60000E+03 5.00000E+02 5.00000E+02
 -1       481 2.00000E+03 2.50000E+02 2.50000E+02
 -1       482 2.80000E+03 2.50000E+02 2.50000E+02
 -1       483 2.80000E+03 5.00000E+02 5.00000E+02
 -1       484 3.20000E+03 2.50000E+02 2.50000E+02
 -1       485 3.20000E+03 5.00000E+02 5.00000E+02
 -1       486 2.00000E+03 2.50000E+02 7.50000E+02
 -1       487 2.40000E+03 7.50000E+02 7.50000E+02
 -1       488 2.40000E+03 7.50000E+02 2.50000E+02
 -1       489 3.20000E+03 7.50000E+02 7.50000E+02
 -1       490 3.20000E+03 7.50000E+02 2.50000E+02
 -1       491 2.80000E+03 7.50000E+02 2.50000E+02
 -1       492 2.80000E+03 7.50000E+02 7.50000E+02
 -1       493 3.60000E+03 2.50000E+02 2.50000E+02
 -1       494 3.60000E+03 2.50000E+02 7.50000E+02
 -1       495 3.20000E+03 2.50000E+02 7.50000E+02
 -1       496 4.00000E+03 2.50000E+02 7.50000E+02
 -1       497 7.75387E+03 7.50000E+02 5.00000E+02
 -1       498 7.75387E+03 2.50000E+02 5.00000E+02
 -1       499 7.75387E+03 5.00000E+02 2.50000E+02
 -1       500 7.75387E+03 5.00000E+02 7.50000E+02
 -1       501 2.46131E+02 5.00000E+02 2.50000E+02
 -1       502 2.46131E+02 7.50000E+02 5.00000E+02
 -1       503 2.46131E+02 2.50000E+02 5.00000E+02
 -1       504 2.46131E+02 5.00000E+02 7.50000E+02
 -1       505 7.75387E+03 6.25000E+02 8.75000E+02
 -1       506 7.75387E+03 8.75000E+02 6.25000E+02
 -1       507 7.75387E+03 1.25000E+02 6.25000E+02
 -1       508 7.75387E+03 3.75000E+02 8.75000E+02
 -1       509 7.75387E+03 3.75000E+02 1.25000E+02
 -1       510 7.75387E+03 1.25000E+02 3.75000E+02
 -1       511 7.75387E+03 8.75000E+02 3.75000E+02
 -1       512 7.75387E+03 6.25000E+02 1.25000E+02
 -1       513 2.46131E+02 3.75000E+02 1.25000E+02
 -1       514 2.46131E+02 1.25000E+02 3.75000E+02
 -1       515 2.46131E+02 6.25000E+02 1.25000E+02
 -1       516 2.46131E+02 8.75000E+02 3.75000E+02
 -1       517 2.46131E+02 3.75000E+02 8.75000E+02
 -1       518 2.46131E+02 1.25000E+02 6.25000E+02
 -1       519 2.46131E+02 8.75000E+02 6.25000E+02
 -1       520 2.46131E+02 6.25000E+02 8.75000E+02
 -3
    3C                           217                                     1
 -1       257    6    0    1
 -2       228       167       160       289       404       203       403       406       405       407
 -1       258    6    0    1
 -2       228       342       167       350       409       408       404       410       386       411
 -1       259    6    0    1
 -2       229       290       284       168       413       303       412       415       414       416
 -1       260    6    0    1
 -2       348       351       229       168       364       417       418       420       419       415
 -1       261    6    0    1
 -2       228       160       221       289       403       421       264       406       407       422
 -1       262    6    0    1
 -2       228       167       342       160       404       408       409       403       203       423
 -1       263    6    0    1
 -2       348       229       284       168       418       412       424       420       415       416
 -1       264    6    0    1
 -2       281       160       220       282       427       425       426       324       428       429
 -1       265    6    0    1
 -2       344       282       220       343       431       429       430       382       432       433
 -1       266    6    0    1
 -2       344       282       223       220       431       434       435       430       429       260
 -1       267    6    0    1
 -2       221       160       342       220       421       423       436       263       425       437
 -1       268    6    0    1
 -2       220       221       160       281       263       421       425       426       438       427
 -1       269    6    0    1
 -2       344       223       282       287       435       434       431       440       439       321
 -1       270    6    0    1
 -2       342       160       343       220       423       441       385       437       425       433
 -1       271    6    0    1
 -2       220       160       343       282       425       441       433       429       428       432
 -1       272    6    0    1
 -2       163       348       284       165       443       424       442       184       444       445
 -1       273    6    0    1
 -2       348       224       288       226       448       446       447       449       245       450
 -1       274    6    0    1
 -2       282       160       343       159       428       441       432       451       202       452
 -1       275    6    0    1
 -2       343       344       282       159       382       431       432       452       453       451
 -1       276    6    0    1
 -2       348       349       288       224       367       454       447       448       455       446
 -1       277    6    0    1
 -2       283       223       347       287       458       456       457       318       439       459
 -1       278    6    0    1
 -2       223       344       347       287       435       379       456       439       440       459
 -1       279    6    0    1
 -2       287       344       347       162       440       379       459       461       460       462
 -1       280    6    0    1
 -2       159       344       282       287       453       431       451       463       440       321
 -1       281    6    0    1
 -2       225       223       347       283       257       456       464       465       458       457
 -1       282    6    0    1
 -2       287       347       283       162       459       457       318       461       462       466
 -1       283    6    0    1
 -2       162       347       283       164       462       457       466       196       467       468
 -1       284    6    0    1
 -2       283       347       286       164       457       469       315       468       467       470
 -1       285    6    0    1
 -2       284       348       288       226       424       447       306       471       449       450
 -1       286    6    0    1
 -2       345       288       166       349       474       472       473       370       454       475
 -1       287    6    0    1
 -2       347       225       286       222       464       476       469       477       254       478
 -1       288    6    0    1
 -2       162       287       344       159       461       440       460       199       463       453
 -1       289    6    0    1
 -2       346       286       222       347       480       478       479       376       469       477
 -1       290    6    0    1
 -2       163       348       288       284       443       447       481       442       424       306
 -1       291    6    0    1
 -2       166       285       288       345       482       309       472       473       483       474
 -1       292    6    0    1
 -2       166       286       285       345       484       312       482       473       485       483
 -1       293    6    0    1
 -2       348       288       349       163       447       454       367       443       481       486
 -1       294    6    0    1
 -2       288       349       227       224       454       487       488       446       455       248
 -1       295    6    0    1
 -2       166       288       163       349       472       481       187       475       454       486
 -1       296    6    0    1
 -2       345       286       222       346       485       478       489       373       480       479
 -1       297    6    0    1
 -2       227       285       286       345       491       312       490       492       483       485
 -1       298    6    0    1
 -2       347       286       225       283       469       476       464       457       315       465
 -1       299    6    0    1
 -2       222       227       286       345       251       490       478       489       492       485
 -1       300    6    0    1
 -2       166       161       286       346       190       493       484       495       494       480
 -1       301    6    0    1
 -2       345       166       286       346       473       484       485       373       495       480
 -1       302    6    0    1
 -2       345       349       227       288       370       487       492       474       454       488
 -1       303    6    0    1
 -2       347       346       286       164       376       480       469       467       496       470
 -1       304    6    0    1
 -2       227       288       285       345       488       309       491       492       474       483
 -1       305    6    0    1
 -2       346       161       286       164       494       493       480       496       193       470
 -1       306    6    0    1
 -2       229       284       226       348       412       471       242       418       424       449
 -1       307    6    0    1
 -2       168       284       348       165       416       424       420       181       445       444
 -1       308    6    0    1
 -2       289       160       221       281       407       421       422       325       427       438
 -1       309    6    0    1
 -2       221       342       160       228       436       423       421       264       409       403
 -1       310    6    0    1
 -2       134       167       228       289       498       404       497       499       405       406
 -1       311    6    0    1
 -2       228       350       167       134       410       411       404       497       500       498
 -1       312    6    0    1
 -2       229       109       290       168       502       501       413       415       503       414
 -1       313    6    0    1
 -2       351       109       229       168       504       502       417       419       503       415
 -1       314    6    0    1
 -2       228       137       350       134       506       505       410       497       155       500
 -1       315    6    0    1
 -2       350       135       167       134       508       507       411       500       152       498
 -1       316    6    0    1
 -2       289       134       167       138       499       498       405       509       153       510
 -1       317    6    0    1
 -2       134       228       136       289       497       511       157       499       406       512
 -1       318    6    0    1
 -2       109       113       290       168       128       513       501       503       514       414
 -1       319    6    0    1
 -2       109       290       111       229       501       515       131       502       413       516
 -1       320    6    0    1
 -2       110       109       351       168       126       504       517       518       503       419
 -1       321    6    0    1
 -2       112       109       229       351       130       502       519       520       504       417
 -1       322    6    0    1
 -2       342       343        97       220       385       400       401       437       433       277
 -1       323    6    0    1
 -2       281       220        78       282       426       259       341       324       429       338
 -1       324    6    0    1
 -2       221       342        97       220       436       401       280       263       437       277
 -1       325    6    0    1
 -2       159       282       160        40       451       428       202       197       319       201
 -1       326    6    0    1
 -2       343       160        59       159       441       219       380       452       202       216
 -1       327    6    0    1
 -2       345       222        93       346       489       272       392       373       479       393
 -1       328    6    0    1
 -2        39       282       287       159       320       321       316       198       451       463
 -1       329    6    0    1
 -2       344       343        58       159       382       381       377       453       452       217
 -1       330    6    0    1
 -2       220       223        77       282       260       256       258       429       434       339
 -1       331    6    0    1
 -2       223       347        95       225       456       396       276       257       464       273
 -1       332    6    0    1
 -2       165        34       284       163       179       301       445       184       183       442
 -1       333    6    0    1
 -2       222        93       227       345       272       269       251       489       392       492
 -1       334    6    0    1
 -2       345        55       166       346       368       208       473       373       372       495
 -1       335    6    0    1
 -2        76       283       223       225       334       458       255       253       465       257
 -1       336    6    0    1
 -2       343        59       160       342       380       219       441       385       384       423
 -1       337    6    0    1
 -2        95       344       347       223       397       379       396       276       435       456
 -1       338    6    0    1
 -2       347       344        57       162       379       378       374       462       460       215
 -1       339    6    0    1
 -2        38       162       283       164       195       466       313       191       196       468
 -1       340    6    0    1
 -2       162        57       347       164       215       374       462       196       212       467
 -1       341    6    0    1
 -2       224        72       288       226       243       329       446       245       241       450
 -1       342    6    0    1
 -2        91       226       224       348       265       245       268       388       449       448
 -1       343    6    0    1
 -2        53       348       163       165       362       443       207       204       444       184
 -1       344    6    0    1
 -2       288       284        34       163       306       301       305       481       442       183
 -1       345    6    0    1
 -2       282       223        77       287       434       256       339       321       439       336
 -1       346    6    0    1
 -2        76       223       283       287       255       458       334       337       439       318
 -1       347    6    0    1
 -2        38       283       162       287       313       466       195       317       318       461
 -1       348    6    0    1
 -2        72       284       288       226       326       306       329       241       471       450
 -1       349    6    0    1
 -2       348       224        91       349       448       268       388       367       455       389
 -1       350    6    0    1
 -2        55       161       166       346       211       190       208       372       494       495
 -1       351    6    0    1
 -2       227       286        74       222       490       333       247       251       478       249
 -1       352    6    0    1
 -2        53       163       348       349       207       443       362       366       486       367
 -1       353    6    0    1
 -2        36       286       166       161       311       484       185       189       493       190
 -1       354    6    0    1
 -2        74       285       286       227       330       312       333       247       491       490
 -1       355    6    0    1
 -2        94       347       222       225       395       477       271       274       464       254
 -1       356    6    0    1
 -2       283       286        37       164       315       310       314       468       470       192
 -1       357    6    0    1
 -2       344        96       343       220       398       399       382       430       278       433
 -1       358    6    0    1
 -2        36       166       286       285       185       484       311       307       482       312
 -1       359    6    0    1
 -2        73       288       285       227       328       309       331       246       488       491
 -1       360    6    0    1
 -2       345       166        54       349       473       209       369       370       475       365
 -1       361    6    0    1
 -2        92       227       349       224       270       487       390       267       248       455
 -1       362    6    0    1
 -2       347       222       346        94       477       479       376       395       271       394
 -1       363    6    0    1
 -2        54       166       163       349       209       187       206       365       475       486
 -1       364    6    0    1
 -2       346        56       161       164       371       210       494       496       213       193
 -1       365    6    0    1
 -2       286       161        37       164       493       188       310       470       193       192
 -1       366    6    0    1
 -2       227        73       288       224       246       328       488       248       244       446
 -1       367    6    0    1
 -2        78       221       220       281       261       263       259       341       438       426
 -1       368    6    0    1
 -2       282       281       160        40       324       427       428       319       323       201
 -1       369    6    0    1
 -2       163        35       288       166       182       304       481       187       186       472
 -1       370    6    0    1
 -2       223        96       344       220       275       398       435       260       278       430
 -1       371    6    0    1
 -2       162        39       287       159       194       316       461       199       198       463
 -1       372    6    0    1
 -2       347        56       346       164       375       371       376       467       213       496
 -1       373    6    0    1
 -2        92       349       227       345       390       487       270       391       370       492
 -1       374    6    0    1
 -2       285       288        35       166       309       304       308       482       472       186
 -1       375    6    0    1
 -2       225       286       222        75       476       478       254       252       332       250
 -1       376    6    0    1
 -2        75       225       286       283       252       476       332       335       465       315
 -1       377    6    0    1
 -2       162       344        58       159       460       377       214       199       453       217
 -1       378    6    0    1
 -2       228       221        79       289       264       262       239       406       422       300
 -1       379    6    0    1
 -2       167        41       160       289       178       200       203       405       298       407
 -1       380    6    0    1
 -2       342        60       167       350       383       176       408       386       359       411
 -1       381    6    0    1
 -2        71       290       284       229       295       303       327       234       413       412
 -1       382    6    0    1
 -2        52       351       348       168       354       364       363       171       419       420
 -1       383    6    0    1
 -2       351       229        90       348       417       232       356       364       418       387
 -1       384    6    0    1
 -2       284       290        33       168       303       293       302       416       414       173
 -1       385    6    0    1
 -2        98       350       342       228       361       386       402       237       410       409
 -1       386    6    0    1
 -2       226        71       284       229       240       327       471       242       234       412
 -1       387    6    0    1
 -2        90       229       226       348       232       242       266       387       418       449
 -1       388    6    0    1
 -2       168        33       284       165       173       302       416       181       180       445
 -1       389    6    0    1
 -2       168       348        52       165       420       363       171       181       444       205
 -1       390    6    0    1
 -2       289       221        79       281       422       262       300       325       438       340
 -1       391    6    0    1
 -2       289        41       160       281       298       200       407       325       322       427
 -1       392    6    0    1
 -2       167       160        60       342       203       218       176       408       423       383
 -1       393    6    0    1
 -2       221        98       342       228       279       402       436       264       237       409
 -1       394    6    0    1
 -2       167        21       134       135       174       151       498       507       139       152
 -1       395    6    0    1
 -2       289       134        30       136       499       158       296       512       157       150
 -1       396    6    0    1
 -2       110         9       109       168       114       127       126       518       169       503
 -1       397    6    0    1
 -2       138       134        30       289       153       158       144       509       499       296
 -1       398    6    0    1
 -2       138        21       134       167       143       151       153       510       174       498
 -1       399    6    0    1
 -2       111       109        18       290       131       133       125       515       501       291
 -1       400    6    0    1
 -2       168         9       109       113       169       127       503       514       117       128
 -1       401    6    0    1
 -2       290       109        18       113       501       133       291       513       128       119
 -1       402    6    0    1
 -2        27       228       136       134       235       511       148       156       497       157
 -1       403    6    0    1
 -2       137        24       350       134       145       357       505       155       154       500
 -1       404    6    0    1
 -2       350        24       135       134       357       141       508       500       154       152
 -1       405    6    0    1
 -2        27       137       228       134       147       506       235       156       155       497
 -1       406    6    0    1
 -2       229       111       109        15       516       131       502       231       123       132
 -1       407    6    0    1
 -2        15       109       229       112       132       502       231       122       130       519
 -1       408    6    0    1
 -2       351        12       109       110       353       129       504       517       116       126
 -1       409    6    0    1
 -2       112        12       109       351       120       129       130       520       353       504
 -1       410    6    0    1
 -2         8       136       228       289       149       511       238       299       512       406
 -1       411    6    0    1
 -2         5       135       167       350       140       507       175       358       508       411
 -1       412    6    0    1
 -2         7       137       350       228       146       505       360       236       506       410
 -1       413    6    0    1
 -2       138       167       289         6       510       405       509       142       177       297
 -1       414    6    0    1
 -2       111       290         4       229       515       294       124       516       413       233
 -1       415    6    0    1
 -2       112       229         3       351       519       230       121       520       417       355
 -1       416    6    0    1
 -2       290       113         2       168       513       118       292       414       514       172
 -1       417    6    0    1
 -2         1       110       351       168       115       517       352       170       518       419
 -1       418    6    0    1
 -2       137       350        24         7       505       357       145       146       360        26
 -1       419    6    0    1
 -2       138       289        30         6       509       296       144       142       297        31
 -1       420    6    0    1
 -2       228         7       137        27       236       146       506       235        29       147
 -1       421    6    0    1
 -2        30       136         8       289       150       149        32       296       512       299
 -1       422    6    0    1
 -2        24       135         5       350       141       140        25       357       508       358
 -1       423    6    0    1
 -2       135       167        21         5       507       174       139       140       175        23
 -1       424    6    0    1
 -2        27       136       228         8       148       511       235        28       149       238
 -1       425    6    0    1
 -2       138        21       167         6       143       174       510       142        22       177
 -1       426    6    0    1
 -2       229         4       111        15       233       124       516       231        16       123
 -1       427    6    0    1
 -2       168       113         2         9       514       118       172       169       117        10
 -1       428    6    0    1
 -2         3        15       229       112        17       231       230       121       122       519
 -1       429    6    0    1
 -2       290         2       113        18       292       118       513       291        19       119
 -1       430    6    0    1
 -2         4        18       290       111        20       291       294       124       125       515
 -1       431    6    0    1
 -2       110       351        12         1       517       353       116       115       352        13
 -1       432    6    0    1
 -2       168         1       110         9       170       115       518       169        11       114
 -1       433    6    0    1
 -2       112         3        12       351       121        14       120       520       355       353
 -1       434    6    0    1
 -2         8       228        79       289       238       239        89       299       406       300
 -1       435    6    0    1
 -2        98         7       350       228       108       360       361       237       236       410
 -1       436    6    0    1
 -2       289       167        41         6       405       178       298       297       177        51
 -1       437    6    0    1
 -2         5       167        60       350       175       176        70       358       411       359
 -1       438    6    0    1
 -2       290         2        33       168       292        42       293       414       172       173
 -1       439    6    0    1
 -2         4       290        71       229       294       295        80       233       413       234
 -1       440    6    0    1
 -2        52         1       351       168        61       352       354       171       170       419
 -1       441    6    0    1
 -2         3       229        90       351       230       232        99       355       417       356
 -1       442    6    0    1
 -2        78       220        77       282       259       258        87       338       429       339
 -1       443    6    0    1
 -2       343        96        97       220       399       106       400       433       278       277
 -1       444    6    0    1
 -2       159        39       282        40       198       320       451       197        49       319
 -1       445    6    0    1
 -2       343        59        58       159       380        68       381       452       216       217
 -1       446    6    0    1
 -2        92        91       224       349       101       268       267       390       389       455
 -1       447    6    0    1
 -2        52       348        53       165       363       362        62       205       444       204
 -1       448    6    0    1
 -2        94        95       347       225       104       396       395       274       273       464
 -1       449    6    0    1
 -2        95        96       344       223       105       398       397       276       275       435
 -1       450    6    0    1
 -2       347        57        56       164       374        66       375       467       212       213
 -1       451    6    0    1
 -2       284        33        34       165       302        43       301       445       180       179
 -1       452    6    0    1
 -2        91        90       226       348       100       266       265       388       387       449
 -1       453    6    0    1
 -2        72        71       284       226        81       327       326       241       240       471
 -1       454    6    0    1
 -2        72       288        73       224       329       328        82       243       446       244
 -1       455    6    0    1
 -2       344        58        57       162       377        67       378       460       214       215
 -1       456    6    0    1
 -2        54       163        53       349       206       207        63       365       486       366
 -1       457    6    0    1
 -2        76        77       223       287        86       256       255       337       336       439
 -1       458    6    0    1
 -2       288        34        35       163       305        44       304       481       183       182
 -1       459    6    0    1
 -2       161        37        36       286       188        46       189       493       310       311
 -1       460    6    0    1
 -2       346       222        93        94       479       272       393       394       271       103
 -1       461    6    0    1
 -2        74        73       285       227        83       331       330       247       246       491
 -1       462    6    0    1
 -2        55        56       161       346        65       210       211       372       371       494
 -1       463    6    0    1
 -2        92       227        93       345       270       269       102       391       492       392
 -1       464    6    0    1
 -2        38       283        37       164       313       314        47       191       468       192
 -1       465    6    0    1
 -2       285        35        36       166       308        45       307       482       186       185
 -1       466    6    0    1
 -2        39       287        38       162       316       317        48       194       461       195
 -1       467    6    0    1
 -2        55       166        54       345       208       209        64       368       473       369
 -1       468    6    0    1
 -2       222       286        74        75       478       333       249       250       332        84
 -1       469    6    0    1
 -2        76       225        75       283       253       252        85       334       465       335
 -1       470    6    0    1
 -2       281        41       160        40       322       200       427       323        50       201
 -1       471    6    0    1
 -2        59        60       160       342        69       218       219       384       383       423
 -1       472    6    0    1
 -2        78        79       221       281        88       262       261       341       340       438
 -1       473    6    0    1
 -2        98       342        97       221       402       401       107       279       436       280
 -3
    1PSTEP                         1           1           1          
  100CL  101 1.000000000         520                     0    1           1
 -4  DISP        4    1
 -5  D1          1    2    1    0
 -5  D2          1    2    2    0
 -5  D3          1    2    3    0
 -5  ALL         1    2    0    0    1ALL
 -1         1 0.00000E+00 0.00000E+00 0.00000E+00
 -1         2 0.00000E+00 0.00000E+00 0.00000E+00
 -1         3 0.00000E+00 0.00000E+00 0.00000E+00
 -1         4 0.00000E+00 0.00000E+00 0.00000E+00
 -1         5 8.16317E+00 3.42817E-03-8.75573E+01
 -1         6-8.16240E+00-2.96136E-03-8.75572E+01
 -1         7 8.16362E+00-2.64030E-03-8.75583E+01
 -1         8-8.16308E+00 2.00636E-03-8.75586E+01
 -1         9 0.00000E+00 0.00000E+00 0.00000E+00
 -1        10 0.00000E+00 0.00000E+00 0.00000E+00
 -1        11 0.00000E+00 0.00000E+00 0.00000E+00
 -1        12 0.00000E+00 0.00000E+00 0.00000E+00
 -1        13 0.00000E+00 0.00000E+00 0.00000E+00
 -1        14 0.00000E+00 0.00000E+00 0.00000E+00
 -1        15 0.00000E+00 0.00000E+00 0.00000E+00
 -1        16 0.00000E+00 0.00000E+00 0.00000E+00
 -1        17 0.00000E+00 0.00000E+00 0.00000E+00
 -1        18 0.00000E+00 0.00000E+00 0.00000E+00
 -1        19 0.00000E+00 0.00000E+00 0.00000E+00
 -1        20 0.00000E+00 0.00000E+00 0.00000E+00
 -1        21-2.48829E-05 8.19014E-05-8.75423E+01
 -1        22-4.06740E+00 1.24432E-03-8.75492E+01
 -1        23 4.06773E+00-9.76976E-04-8.75492E+01
 -1        24 8.16860E+00 4.48507E-04-8.75628E+01
 -1        25 8.16874E+00 2.59231E-03-8.75616E+01
 -1        26 8.16895E+00-1.71858E-03-8.75621E+01
 -1        27 5.70643E-05-1.45723E-04-8.75435E+01
 -1        28-4.06776E+00-1.75541E-03-8.75505E+01
 -1        29 4.06816E+00 1.34066E-03-8.75503E+01
 -1        30-8.16894E+00-4.35037E-04-8.75635E+01
 -1        31-8.16847E+00-2.24806E-03-8.75619E+01
 -1        32-8.16889E+00 1.31723E-03-8.75626E+01
 -1        33-1.49663E+00-2.66886E-01-1.27353E+00
 -1        34-2.88907E+00-2.45210E-01-4.89306E+00
 -1        35-4.12470E+00-2.15065E-01-1.06189E+01
 -1        36-5.19326E+00-1.86047E-01-1.81778E+01
 -1        37-6.09787E+00-1.53320E-01-2.73303E+01
 -1        38-6.83916E+00-1.22436E-01-3.77896E+01
 -1        39-7.41475E+00-9.13201E-02-4.93047E+01
 -1        40-7.82896E+00-6.20456E-02-6.16120E+01
 -1        41-8.07685E+00-3.29627E-02-7.44447E+01
 -1        42-7.63125E-01-2.51409E-01-3.60905E-01
 -1        43-2.20997E+00-2.59997E-01-2.80646E+00
 -1        44-3.52727E+00-2.31167E-01-7.50802E+00
 -1        45-4.67890E+00-2.00851E-01-1.41842E+01
 -1        46-5.66407E+00-1.69625E-01-2.25729E+01
 -1        47-6.48765E+00-1.37556E-01-3.24108E+01
 -1        48-7.14638E+00-1.08027E-01-4.34323E+01
 -1        49-7.64201E+00-7.76836E-02-5.53750E+01
 -1        50-7.97312E+00-4.75903E-02-6.79791E+01
 -1        51-8.13760E+00-1.85194E-02-8.09812E+01
 -1        52 1.49623E+00 2.66733E-01-1.27342E+00
 -1        53 2.88955E+00 2.45515E-01-4.89626E+00
 -1        54 4.12449E+00 2.14589E-01-1.06158E+01
 -1        55 5.19297E+00 1.86822E-01-1.81806E+01
 -1        56 6.09769E+00 1.52360E-01-2.73271E+01
 -1        57 6.83895E+00 1.22150E-01-3.77923E+01
 -1        58 7.41530E+00 9.14717E-02-4.93072E+01
 -1        59 7.82879E+00 6.17044E-02-6.16113E+01
 -1        60 8.07706E+00 3.22187E-02-7.44491E+01
 -1        61 7.63084E-01 2.51471E-01-3.60833E-01
 -1        62 2.21044E+00 2.59421E-01-2.80638E+00
 -1        63 3.52585E+00 2.30131E-01-7.50830E+00
 -1        64 4.68067E+00 2.00663E-01-1.41842E+01
 -1        65 5.66296E+00 1.69440E-01-2.25730E+01
 -1        66 6.48893E+00 1.38324E-01-3.24105E+01
 -1        67 7.14585E+00 1.06657E-01-4.34319E+01
 -1        68 7.64062E+00 7.66171E-02-5.53749E+01
 -1        69 7.97315E+00 4.64843E-02-6.79788E+01
 -1        70 8.13816E+00 1.79207E-02-8.09808E+01
 -1        71-1.49749E+00 2.66841E-01-1.27352E+00
 -1        72-2.88864E+00 2.47031E-01-4.89004E+00
 -1        73-4.12383E+00 2.15067E-01-1.06190E+01
 -1        74-5.19355E+00 1.85579E-01-1.81777E+01
 -1        75-6.09833E+00 1.54082E-01-2.73296E+01
 -1        76-6.84001E+00 1.22171E-01-3.77895E+01
 -1        77-7.41522E+00 9.32662E-02-4.93012E+01
 -1        78-7.82784E+00 6.18761E-02-6.16093E+01
 -1        79-8.07609E+00 3.16196E-02-7.44467E+01
 -1        80-7.63363E-01 2.51366E-01-3.60903E-01
 -1        81-2.21168E+00 2.60682E-01-2.80615E+00
 -1        82-3.52543E+00 2.31558E-01-7.50783E+00
 -1        83-4.67813E+00 2.00581E-01-1.41845E+01
 -1        84-5.66639E+00 1.69800E-01-2.25725E+01
 -1        85-6.48758E+00 1.37879E-01-3.24101E+01
 -1        86-7.14828E+00 1.08613E-01-4.34315E+01
 -1        87-7.64223E+00 7.81603E-02-5.53739E+01
 -1        88-7.97041E+00 4.65610E-02-6.79797E+01
 -1        89-8.13791E+00 1.74735E-02-8.09826E+01
 -1        90 1.49692E+00-2.66968E-01-1.27301E+00
 -1        91 2.88921E+00-2.46726E-01-4.89549E+00
 -1        92 4.12350E+00-2.14848E-01-1.06157E+01
 -1        93 5.19387E+00-1.84678E-01-1.81839E+01
 -1        94 6.09837E+00-1.55366E-01-2.73234E+01
 -1        95 6.83885E+00-1.22371E-01-3.77919E+01
 -1        96 7.41582E+00-9.22175E-02-4.93065E+01
 -1        97 7.82790E+00-6.15961E-02-6.16085E+01
 -1        98 8.07591E+00-3.05484E-02-7.44511E+01
 -1        99 7.63279E-01-2.51468E-01-3.60781E-01
 -1       100 2.21169E+00-2.59663E-01-2.80546E+00
 -1       101 3.52495E+00-2.30642E-01-7.50774E+00
 -1       102 4.67923E+00-2.00047E-01-1.41845E+01
 -1       103 5.66649E+00-1.70156E-01-2.25725E+01
 -1       104 6.48783E+00-1.39367E-01-3.24100E+01
 -1       105 7.14714E+00-1.06590E-01-4.34313E+01
 -1       106 7.64207E+00-7.69488E-02-5.53737E+01
 -1       107 7.97055E+00-4.55959E-02-6.79799E+01
 -1       108 8.13825E+00-1.65570E-02-8.09818E+01
 -1       109 0.00000E+00 0.00000E+00 0.00000E+00
 -1       110 0.00000E+00 0.00000E+00 0.00000E+00
 -1       111 0.00000E+00 0.00000E+00 0.00000E+00
 -1       112 0.00000E+00 0.00000E+00 0.00000E+00
 -1       113 0.00000E+00 0.00000E+00 0.00000E+00
 -1       114 0.00000E+00 0.00000E+00 0.00000E+00
 -1       115 0.00000E+00 0.00000E+00 0.00000E+00
 -1       116 0.00000E+00 0.00000E+00 0.00000E+00
 -1       117 0.00000E+00 0.00000E+00 0.00000E+00
 -1       118 0.00000E+00 0.00000E+00 0.00000E+00
 -1       119 0.00000E+00 0.00000E+00 0.00000E+00
 -1       120 0.00000E+00 0.00000E+00 0.00000E+00
 -1       121 0.00000E+00 0.00000E+00 0.00000E+00
 -1       122 0.00000E+00 0.00000E+00 0.00000E+00
 -1       123 0.00000E+00 0.00000E+00 0.00000E+00
 -1       124 0.00000E+00 0.00000E+00 0.00000E+00
 -1       125 0.00000E+00 0.00000E+00 0.00000E+00
 -1       126 0.00000E+00 0.00000E+00 0.00000E+00
 -1       127 0.00000E+00 0.00000E+00 0.00000E+00
 -1       128 0.00000E+00 0.00000E+00 0.00000E+00
 -1       129 0.00000E+00 0.00000E+00 0.00000E+00
 -1       130 0.00000E+00 0.00000E+00 0.00000E+00
 -1       131 0.00000E+00 0.00000E+00 0.00000E+00
 -1       132 0.00000E+00 0.00000E+00 0.00000E+00
 -1       133 0.00000E+00 0.00000E+00 0.00000E+00
 -1       134-1.09659E-04-6.94771E-06-8.75527E+01
 -1       135 4.07147E+00-1.18513E-04-8.75540E+01
 -1       136-4.07158E+00-7.94755E-04-8.75548E+01
 -1       137 4.07164E+00 5.52604E-04-8.75545E+01
 -1       138-4.07137E+00 3.88218E-04-8.75541E+01
 -1       139 2.03286E+00-4.71211E-04-8.75468E+01
 -1       140 6.11387E+00 6.75551E-04-8.75565E+01
 -1       141 6.11744E+00 7.48451E-04-8.75592E+01
 -1       142-6.11339E+00-2.91826E-04-8.75565E+01
 -1       143-2.03298E+00 6.37714E-04-8.75468E+01
 -1       144-6.11761E+00-5.00845E-04-8.75597E+01
 -1       145 6.11753E+00-7.59654E-05-8.75595E+01
 -1       146 6.11415E+00-5.80013E-05-8.75573E+01
 -1       147 2.03311E+00 6.59346E-04-8.75477E+01
 -1       148-2.03302E+00-9.14245E-04-8.75478E+01
 -1       149-6.11387E+00-4.27551E-04-8.75575E+01
 -1       150-6.11775E+00-1.07553E-04-8.75600E+01
 -1       151-1.60298E-04 4.02349E-05-8.75476E+01
 -1       152 2.03423E+00-3.14725E-04-8.75527E+01
 -1       153-2.03440E+00 4.04961E-04-8.75527E+01
 -1       154 4.07422E+00 2.18100E-04-8.75556E+01
 -1       155 2.03432E+00 5.03440E-04-8.75529E+01
 -1       156-6.72541E-05-7.86512E-05-8.75483E+01
 -1       157-2.03452E+00-5.59719E-04-8.75532E+01
 -1       158-4.07450E+00-1.68869E-04-8.75561E+01
 -1       159 2.16128E-03 2.55344E-04-5.53372E+01
 -1       160 1.22517E-04 1.42306E-04-6.79583E+01
 -1       161 1.22760E-03-7.32381E-05-2.24881E+01
 -1       162 1.14800E-03 8.58408E-05-4.33793E+01
 -1       163 2.39229E-03 3.60993E-05-7.39364E+00
 -1       164-2.38938E-03-1.80033E-04-3.23424E+01
 -1       165-7.11345E-04-1.89971E-04-2.67578E+00
 -1       166-2.58056E-03-2.43727E-04-1.40841E+01
 -1       167-5.40186E-04-1.04898E-03-7.94605E+01
 -1       168-7.86692E-05-9.02980E-05-3.66730E-01
 -1       169-2.78156E-05-1.30851E-05-2.83417E-02
 -1       170 2.19950E-01 1.00628E-01-4.87498E-02
 -1       171 5.99661E-01 1.35559E-01-7.44495E-01
 -1       172-2.19973E-01-1.00615E-01-4.87925E-02
 -1       173-5.99862E-01-1.35366E-01-7.44551E-01
 -1       174-1.41543E-04-1.56273E-04-8.35029E+01
 -1       175 4.06270E+00 4.71617E-03-8.35026E+01
 -1       176 4.04225E+00 1.40299E-02-7.69458E+01
 -1       177-4.06247E+00-5.10265E-03-8.35029E+01
 -1       178-4.04114E+00-1.36520E-02-7.69443E+01
 -1       179-1.26615E+00-1.26029E-01-3.68640E+00
 -1       180-9.18083E-01-1.33412E-01-1.86884E+00
 -1       181-3.10460E-04-5.24386E-05-1.29122E+00
 -1       182-1.90352E+00-1.11511E-01-8.92026E+00
 -1       183-1.59713E+00-1.19512E-01-6.04588E+00
 -1       184 1.64123E-04-3.39970E-04-4.76840E+00
 -1       185-2.46177E+00-9.56407E-02-1.60577E+01
 -1       186-2.19501E+00-1.05267E-01-1.22676E+01
 -1       187 3.84095E-04 8.15595E-04-1.05059E+01
 -1       188-2.93100E+00-8.04481E-02-2.48474E+01
 -1       189-2.70499E+00-8.93551E-02-2.02617E+01
 -1       190-7.88550E-05-3.26077E-04-1.80907E+01
 -1       191-3.32395E+00-6.48391E-02-3.50162E+01
 -1       192-3.14004E+00-7.41627E-02-2.97763E+01
 -1       193 6.28614E-05 1.15686E-04-2.72479E+01
 -1       194-3.63149E+00-4.99451E-02-4.63045E+01
 -1       195-3.48966E+00-5.87790E-02-4.05357E+01
 -1       196-8.54798E-04-8.53323E-04-3.77261E+01
 -1       197-3.85906E+00-3.53806E-02-5.84487E+01
 -1       198-3.75742E+00-4.27380E-02-5.22839E+01
 -1       199 6.54649E-04 1.02095E-04-4.92562E+01
 -1       200-4.00465E+00-1.88452E-02-7.11879E+01
 -1       201-3.94478E+00-2.84269E-02-6.47602E+01
 -1       202 8.32507E-04 4.75127E-04-6.15770E+01
 -1       203 1.35808E-04 2.21160E-04-7.36812E+01
 -1       204 1.26565E+00 1.25967E-01-3.68758E+00
 -1       205 9.17683E-01 1.33234E-01-1.86847E+00
 -1       206 1.90488E+00 1.11088E-01-8.91869E+00
 -1       207 1.59764E+00 1.20291E-01-6.04876E+00
 -1       208 2.46097E+00 9.60980E-02-1.60603E+01
 -1       209 2.19396E+00 1.04742E-01-1.22650E+01
 -1       210 2.93177E+00 8.00420E-02-2.48460E+01
 -1       211 2.70551E+00 8.94121E-02-2.02631E+01
 -1       212 3.32230E+00 6.51802E-02-3.50176E+01
 -1       213 3.13962E+00 7.33680E-02-2.97735E+01
 -1       214 3.63170E+00 4.93593E-02-4.63050E+01
 -1       215 3.48982E+00 5.86056E-02-4.05378E+01
 -1       216 3.85979E+00 3.47463E-02-5.84479E+01
 -1       217 3.75774E+00 4.36516E-02-5.22865E+01
 -1       218 4.00340E+00 1.99744E-02-7.11895E+01
 -1       219 3.94450E+00 2.82911E-02-6.47597E+01
 -1       220-5.00724E-04 9.90642E-04-5.53351E+01
 -1       221 7.80704E-05 9.05339E-04-6.79563E+01
 -1       222-1.01162E-03 6.92177E-05-2.24878E+01
 -1       223 2.00670E-03 4.57830E-04-4.33783E+01
 -1       224 1.57307E-04 1.19121E-03-7.39221E+00
 -1       225-1.02787E-04-1.28775E-03-3.23408E+01
 -1       226 2.36254E-04 1.24353E-03-2.67490E+00
 -1       227-7.26494E-04 1.39809E-03-1.40847E+01
 -1       228 1.81927E-04 1.11467E-04-7.94605E+01
 -1       229-8.54847E-05 1.90192E-05-3.66417E-01
 -1       230 2.20011E-01-1.00623E-01-4.86659E-02
 -1       231-2.66530E-05-5.16562E-06-2.82256E-02
 -1       232 6.00195E-01-1.35464E-01-7.44215E-01
 -1       233-2.20041E-01 1.00580E-01-4.86869E-02
 -1       234-6.00485E-01 1.35438E-01-7.44338E-01
 -1       235 9.07762E-05-6.44718E-05-8.35038E+01
 -1       236 4.06314E+00-4.14640E-03-8.35034E+01
 -1       237 4.04194E+00-1.34402E-02-7.69470E+01
 -1       238-4.06257E+00 4.29718E-03-8.35039E+01
 -1       239-4.04058E+00 1.31892E-02-7.69455E+01
 -1       240-9.18892E-01 1.33751E-01-1.86848E+00
 -1       241-1.26761E+00 1.26304E-01-3.68538E+00
 -1       242 4.21115E-04-4.57389E-05-1.29069E+00
 -1       243-1.59468E+00 1.20018E-01-6.04520E+00
 -1       244-1.90279E+00 1.11581E-01-8.91965E+00
 -1       245-1.10062E-04-1.64232E-03-4.76991E+00
 -1       246-2.19398E+00 1.05712E-01-1.22678E+01
 -1       247-2.46111E+00 9.54446E-02-1.60579E+01
 -1       248-8.82357E-05-3.41656E-04-1.05057E+01
 -1       249-2.70630E+00 8.89614E-02-2.02608E+01
 -1       250-2.93229E+00 8.09586E-02-2.48476E+01
 -1       251-5.41049E-04-1.48136E-03-1.80884E+01
 -1       252-3.13945E+00 7.42556E-02-2.97754E+01
 -1       253-3.32388E+00 6.45399E-02-3.50154E+01
 -1       254-1.94854E-05 1.56728E-03-2.72493E+01
 -1       255-3.49024E+00 5.89226E-02-4.05353E+01
 -1       256-3.63314E+00 4.91207E-02-4.63029E+01
 -1       257 3.91155E-04 2.68419E-04-3.77252E+01
 -1       258-3.75598E+00 4.24508E-02-5.22826E+01
 -1       259-3.86069E+00 3.38644E-02-5.84479E+01
 -1       260 2.84149E-04-1.77453E-03-4.92576E+01
 -1       261-3.94091E+00 2.73112E-02-6.47603E+01
 -1       262-4.00383E+00 1.84307E-02-7.11884E+01
 -1       263 1.08973E-04 2.11969E-04-6.15832E+01
 -1       264-1.14225E-04-2.39335E-04-7.36815E+01
 -1       265 1.26632E+00-1.26418E-01-3.68734E+00
 -1       266 9.18407E-01-1.32970E-01-1.86760E+00
 -1       267 1.90404E+00-1.11009E-01-8.91816E+00
 -1       268 1.59634E+00-1.20578E-01-6.04791E+00
 -1       269 2.45951E+00-9.63439E-02-1.60609E+01
 -1       270 2.19368E+00-1.04426E-01-1.22652E+01
 -1       271 2.93384E+00-8.00777E-02-2.48445E+01
 -1       272 2.70801E+00-9.02763E-02-2.02638E+01
 -1       273 3.32235E+00-6.56792E-02-3.50167E+01
 -1       274 3.13775E+00-7.42096E-02-2.97724E+01
 -1       275 3.63280E+00-4.97155E-02-4.63047E+01
 -1       276 3.49005E+00-5.85538E-02-4.05370E+01
 -1       277 3.86073E+00-3.31217E-02-5.84474E+01
 -1       278 3.75713E+00-4.37420E-02-5.22852E+01
 -1       279 4.00258E+00-1.92212E-02-7.11903E+01
 -1       280 3.94041E+00-2.68612E-02-6.47599E+01
 -1       281-7.97665E+00-9.29231E-04-6.80043E+01
 -1       282-7.64282E+00-1.19212E-03-5.54141E+01
 -1       283-6.49170E+00-1.28051E-04-3.24777E+01
 -1       284-2.21427E+00-7.22110E-04-2.93862E+00
 -1       285-4.67541E+00-9.81857E-05-1.42846E+01
 -1       286-5.67450E+00 1.74781E-05-2.26574E+01
 -1       287-7.14816E+00-9.91206E-04-4.34874E+01
 -1       288-3.53321E+00-6.32263E-04-7.62156E+00
 -1       289-8.13463E+00-1.35270E-03-7.94838E+01
 -1       290-9.15141E-01-4.39116E-05-6.37301E-01
 -1       291-4.23535E-01-3.14285E-05-2.66366E-01
 -1       292-4.35204E-01-7.21055E-02-2.37477E-01
 -1       293-1.21119E+00-1.38098E-01-9.49989E-01
 -1       294-4.35289E-01 7.20621E-02-2.37471E-01
 -1       295-1.21149E+00 1.38028E-01-9.49863E-01
 -1       296-8.15665E+00-7.39781E-04-8.35154E+01
 -1       297-8.15672E+00-6.85644E-03-8.35125E+01
 -1       298-8.10976E+00-1.50021E-02-7.69646E+01
 -1       299-8.15690E+00 5.37793E-03-8.35129E+01
 -1       300-8.10902E+00 1.33412E-02-7.69662E+01
 -1       301-2.55706E+00-1.25378E-01-3.87672E+00
 -1       302-1.85853E+00-1.32513E-01-2.06836E+00
 -1       303-1.57921E+00-1.16634E-04-1.55643E+00
 -1       304-3.83448E+00-1.10257E-01-9.08648E+00
 -1       305-3.21704E+00-1.19226E-01-6.22554E+00
 -1       306-2.88495E+00 1.26495E-03-5.01483E+00
 -1       307-4.94314E+00-9.69566E-02-1.62016E+01
 -1       308-4.40833E+00-1.04134E-01-1.24245E+01
 -1       309-4.11704E+00-8.13402E-05-1.07276E+01
 -1       310-5.89109E+00-7.93072E-02-2.49685E+01
 -1       311-5.43878E+00-9.04629E-02-2.03947E+01
 -1       312-5.18745E+00-6.51030E-04-1.82695E+01
 -1       313-6.67144E+00-6.35040E-02-3.51123E+01
 -1       314-6.30097E+00-7.29981E-02-2.98859E+01
 -1       315-6.09522E+00 6.68670E-04-2.74073E+01
 -1       316-7.28764E+00-4.86235E-02-4.63785E+01
 -1       317-7.00081E+00-5.88314E-02-4.06231E+01
 -1       318-6.83030E+00-5.58571E-04-3.78496E+01
 -1       319-7.74252E+00-3.44695E-02-5.85006E+01
 -1       320-7.53644E+00-4.24907E-02-5.23481E+01
 -1       321-7.40794E+00 1.13032E-03-4.93490E+01
 -1       322-8.03325E+00-2.07118E-02-7.12167E+01
 -1       323-7.91002E+00-2.74611E-02-6.48011E+01
 -1       324-7.82510E+00 8.77686E-04-6.16416E+01
 -1       325-8.06762E+00-1.10699E-03-7.37126E+01
 -1       326-2.55716E+00 1.27141E-01-3.87579E+00
 -1       327-1.85896E+00 1.32027E-01-2.06855E+00
 -1       328-3.83383E+00 1.09793E-01-9.08645E+00
 -1       329-3.21613E+00 1.20524E-01-6.22465E+00
 -1       330-4.94271E+00 9.61470E-02-1.62016E+01
 -1       331-4.40781E+00 1.04108E-01-1.24244E+01
 -1       332-5.89160E+00 7.99724E-02-2.49679E+01
 -1       333-5.43922E+00 9.00471E-02-2.03950E+01
 -1       334-6.67191E+00 6.32379E-02-3.51123E+01
 -1       335-6.30087E+00 7.38848E-02-2.98856E+01
 -1       336-7.28872E+00 5.04062E-02-4.63780E+01
 -1       337-7.00169E+00 5.77962E-02-4.06230E+01
 -1       338-7.74332E+00 3.48863E-02-5.85000E+01
 -1       339-7.53596E+00 4.32885E-02-5.23480E+01
 -1       340-8.03177E+00 1.85622E-02-7.12174E+01
 -1       341-7.90823E+00 2.76490E-02-6.48011E+01
 -1       342 7.97957E+00 1.47992E-03-6.80008E+01
 -1       343 7.63879E+00 1.55429E-04-5.54101E+01
 -1       344 7.15000E+00-4.59019E-04-4.34801E+01
 -1       345 4.68062E+00-6.26014E-04-1.42839E+01
 -1       346 5.66904E+00-2.33252E-04-2.26576E+01
 -1       347 6.49581E+00 1.87626E-04-3.24771E+01
 -1       348 2.21739E+00-5.46191E-04-2.93429E+00
 -1       349 3.52949E+00-2.08458E-04-7.62165E+00
 -1       350 8.13152E+00 7.14418E-04-7.94804E+01
 -1       351 9.15191E-01 1.04303E-04-6.37242E-01
 -1       352 4.35150E-01 7.21670E-02-2.37445E-01
 -1       353 4.23542E-01 5.22089E-05-2.66354E-01
 -1       354 1.21114E+00 1.38247E-01-9.49821E-01
 -1       355 4.35230E-01-7.20904E-02-2.37446E-01
 -1       356 1.21149E+00-1.38162E-01-9.49748E-01
 -1       357 8.15554E+00 5.54032E-04-8.35143E+01
 -1       358 8.15665E+00 6.77196E-03-8.35116E+01
 -1       359 8.10815E+00 1.41817E-02-7.69653E+01
 -1       360 8.15678E+00-5.62813E-03-8.35120E+01
 -1       361 8.10794E+00-1.23022E-02-7.69660E+01
 -1       362 2.55869E+00 1.25094E-01-3.87748E+00
 -1       363 1.85901E+00 1.31771E-01-2.06699E+00
 -1       364 1.58001E+00-7.50704E-05-1.55564E+00
 -1       365 3.83316E+00 1.09576E-01-9.08442E+00
 -1       366 3.21547E+00 1.19174E-01-6.22787E+00
 -1       367 2.88574E+00-9.28918E-04-5.01955E+00
 -1       368 4.94486E+00 9.71698E-02-1.62041E+01
 -1       369 4.40981E+00 1.03792E-01-1.24219E+01
 -1       370 4.11550E+00-2.09602E-04-1.07221E+01
 -1       371 5.88903E+00 7.83999E-02-2.49666E+01
 -1       372 5.43683E+00 9.09552E-02-2.03969E+01
 -1       373 5.18640E+00 1.23115E-03-1.82752E+01
 -1       374 6.67270E+00 6.38342E-02-3.51140E+01
 -1       375 6.30243E+00 7.27594E-02-2.98835E+01
 -1       376 6.09332E+00-1.67194E-03-2.74013E+01
 -1       377 7.28893E+00 4.79655E-02-4.63778E+01
 -1       378 6.99994E+00 5.74172E-02-4.06238E+01
 -1       379 6.83569E+00 9.11578E-05-3.78533E+01
 -1       380 7.74151E+00 3.37856E-02-5.84987E+01
 -1       381 7.53445E+00 4.22277E-02-5.23496E+01
 -1       382 7.40831E+00-6.62497E-04-4.93527E+01
 -1       383 8.03381E+00 1.95636E-02-7.12173E+01
 -1       384 7.90978E+00 2.75529E-02-6.47999E+01
 -1       385 7.82469E+00-1.02341E-03-6.16403E+01
 -1       386 8.06728E+00 1.15970E-03-7.37164E+01
 -1       387 1.85945E+00-1.32280E-01-2.06681E+00
 -1       388 2.55878E+00-1.26404E-01-3.87695E+00
 -1       389 3.21486E+00-1.20355E-01-6.22763E+00
 -1       390 3.83251E+00-1.09897E-01-9.08429E+00
 -1       391 4.40908E+00-1.04407E-01-1.24220E+01
 -1       392 4.94391E+00-9.53201E-02-1.62040E+01
 -1       393 5.43756E+00-8.90128E-02-2.03975E+01
 -1       394 5.89017E+00-8.15474E-02-2.49655E+01
 -1       395 6.30247E+00-7.49851E-02-2.98826E+01
 -1       396 6.67276E+00-6.38901E-02-3.51139E+01
 -1       397 7.00056E+00-5.74923E-02-4.06232E+01
 -1       398 7.28961E+00-4.89354E-02-4.63774E+01
 -1       399 7.53509E+00-4.23845E-02-5.23489E+01
 -1       400 7.74325E+00-3.50591E-02-5.84987E+01
 -1       401 7.90885E+00-2.73671E-02-6.47995E+01
 -1       402 8.03317E+00-1.75468E-02-7.12191E+01
 -1       403-1.97690E-05 1.55401E-05-7.36984E+01
 -1       404 3.75526E-04 2.26137E-04-7.94736E+01
 -1       405-4.05594E+00-5.98084E-03-7.94721E+01
 -1       406-4.05726E+00 5.46655E-03-7.94730E+01
 -1       407-4.02621E+00-8.59842E-03-7.36962E+01
 -1       408 4.02486E+00 9.26051E-03-7.36986E+01
 -1       409 4.02547E+00-8.04685E-03-7.37002E+01
 -1       410 4.05730E+00-4.87421E-03-7.94708E+01
 -1       411 4.05702E+00 5.43735E-03-7.94708E+01
 -1       412-7.82395E-01 6.78013E-02-1.42270E+00
 -1       413-4.47704E-01 6.80625E-02-4.96265E-01
 -1       414-4.47561E-01-6.81440E-02-4.96359E-01
 -1       415-2.27812E-05-3.77208E-05-4.82330E-01
 -1       416-7.81909E-01-6.79075E-02-1.42298E+00
 -1       417 4.47787E-01-6.80838E-02-4.96190E-01
 -1       418 7.83017E-01-6.78437E-02-1.42193E+00
 -1       419 4.47589E-01 6.82149E-02-4.96255E-01
 -1       420 7.82231E-01 6.80615E-02-1.42217E+00
 -1       421-3.39224E-04-1.19304E-04-6.79784E+01
 -1       422-4.02421E+00 7.55514E-03-7.36975E+01
 -1       423 3.98164E+00 1.25125E-02-6.79787E+01
 -1       424-5.74997E-04-7.48324E-04-2.80396E+00
 -1       425 2.30712E-04 1.17368E-04-6.16110E+01
 -1       426-3.90741E+00 1.54593E-02-6.16099E+01
 -1       427-3.98172E+00-1.28743E-02-6.79807E+01
 -1       428-3.90898E+00-1.55338E-02-6.16112E+01
 -1       429-3.81679E+00 1.87709E-02-5.53745E+01
 -1       430 3.69965E+00-2.37047E-02-4.93053E+01
 -1       431-1.36281E-03 5.39892E-04-4.93033E+01
 -1       432 1.70435E-03-2.04888E-04-5.53744E+01
 -1       433 3.81736E+00-1.80200E-02-5.53723E+01
 -1       434-3.69937E+00 2.25563E-02-4.93024E+01
 -1       435 3.57005E+00-2.64278E-02-4.34292E+01
 -1       436 3.97751E+00-1.09775E-02-6.79789E+01
 -1       437 3.90756E+00-1.53769E-02-6.16092E+01
 -1       438-3.97866E+00 1.15828E-02-6.79800E+01
 -1       439-3.57106E+00 2.77698E-02-4.34329E+01
 -1       440 4.18558E-04-6.67160E-04-4.34314E+01
 -1       441 3.90814E+00 1.55474E-02-6.16101E+01
 -1       442-1.43807E+00-5.98406E-02-4.89213E+00
 -1       443 1.43744E+00 6.07698E-02-4.89588E+00
 -1       444 1.09798E+00 6.44656E-02-2.80447E+00
 -1       445-1.09845E+00-6.50159E-02-2.80559E+00
 -1       446-1.75691E+00 5.88371E-02-7.50774E+00
 -1       447-1.60686E-03 7.10006E-04-4.89232E+00
 -1       448 1.43615E+00-6.20220E-02-4.89525E+00
 -1       449 1.09988E+00-6.38073E-02-2.80369E+00
 -1       450-1.43626E+00 6.16146E-02-4.89076E+00
 -1       451-3.81539E+00-2.08996E-02-5.53757E+01
 -1       452 3.81562E+00 1.97658E-02-5.53736E+01
 -1       453 3.69970E+00 2.27702E-02-4.93062E+01
 -1       454 1.22577E-03-2.41972E-04-7.50739E+00
 -1       455 1.75856E+00-5.76443E-02-7.50694E+00
 -1       456 3.41277E+00-3.01872E-02-3.77910E+01
 -1       457-1.22577E-03 1.88490E-04-3.24098E+01
 -1       458-3.41332E+00 2.98519E-02-3.77881E+01
 -1       459-2.51288E-03-1.28527E-04-3.77883E+01
 -1       460 3.56837E+00 2.71407E-02-4.34300E+01
 -1       461-3.56849E+00-2.84032E-02-4.34332E+01
 -1       462 3.41216E+00 2.99973E-02-3.77916E+01
 -1       463-3.70082E+00-2.18241E-02-4.93032E+01
 -1       464 3.23825E+00-3.59546E-02-3.24100E+01
 -1       465-3.23991E+00 3.44346E-02-3.24092E+01
 -1       466-3.41273E+00-3.00866E-02-3.77883E+01
 -1       467 3.23963E+00 3.59926E-02-3.24103E+01
 -1       468-3.24031E+00-3.49009E-02-3.24096E+01
 -1       469 1.64489E-03-7.27208E-04-2.73263E+01
 -1       470-3.04190E+00-3.78060E-02-2.73298E+01
 -1       471-1.10124E+00 6.49229E-02-2.80577E+00
 -1       472-2.05554E+00-5.30417E-02-1.06183E+01
 -1       473 2.33659E+00 4.98845E-02-1.41841E+01
 -1       474 2.16210E-03-3.67090E-05-1.06150E+01
 -1       475 2.05565E+00 5.30672E-02-1.06144E+01
 -1       476-3.04119E+00 3.88531E-02-2.73291E+01
 -1       477 3.04114E+00-3.89639E-02-2.73243E+01
 -1       478-2.82911E+00 4.24993E-02-2.25726E+01
 -1       479 2.83150E+00-4.27652E-02-2.25727E+01
 -1       480 1.38156E-03-1.09469E-04-2.25728E+01
 -1       481-1.75862E+00-5.92089E-02-7.50799E+00
 -1       482-2.33674E+00-5.04012E-02-1.41843E+01
 -1       483-2.57837E-03-2.15795E-04-1.41843E+01
 -1       484-2.59013E+00-4.74071E-02-1.81782E+01
 -1       485 6.19353E-04 5.59148E-04-1.81810E+01
 -1       486 1.75938E+00 5.79815E-02-7.50717E+00
 -1       487 2.05523E+00-5.29132E-02-1.06145E+01
 -1       488-2.05460E+00 5.32262E-02-1.06182E+01
 -1       489 2.58860E+00-4.66741E-02-1.81828E+01
 -1       490-2.58928E+00 4.63662E-02-1.81784E+01
 -1       491-2.33614E+00 5.06674E-02-1.41843E+01
 -1       492 2.33520E+00-5.04083E-02-1.41843E+01
 -1       493-2.82512E+00-4.24269E-02-2.25728E+01
 -1       494 2.82601E+00 4.22553E-02-2.25729E+01
 -1       495 2.58993E+00 4.79165E-02-1.81823E+01
 -1       496 3.04225E+00 3.67752E-02-2.73255E+01
 -1       497 4.98037E-06 3.97308E-06-8.35064E+01
 -1       498-3.17125E-04-1.36127E-04-8.35059E+01
 -1       499-4.06968E+00-2.03665E-04-8.35119E+01
 -1       500 4.06921E+00 3.12440E-04-8.35109E+01
 -1       501-2.05453E-01-3.16640E-05-1.41106E-01
 -1       502-5.15312E-06-4.56303E-06-9.02693E-02
 -1       503 1.97652E-06-1.62551E-05-9.03468E-02
 -1       504 2.05461E-01 3.41359E-05-1.41104E-01
 -1       505 6.10876E+00-2.09378E-03-8.35115E+01
 -1       506 2.03109E+00-1.37955E-03-8.35052E+01
 -1       507 2.03068E+00 1.51592E-03-8.35047E+01
 -1       508 6.10865E+00 2.97121E-03-8.35113E+01
 -1       509-6.10921E+00-2.86443E-03-8.35124E+01
 -1       510-2.03085E+00-1.92354E-03-8.35047E+01
 -1       511-2.03093E+00 1.42581E-03-8.35055E+01
 -1       512-6.10954E+00 1.90071E-03-8.35127E+01
 -1       513-3.11153E-01-3.32970E-02-1.77890E-01
 -1       514-9.61225E-02-3.43694E-02-7.60115E-02
 -1       515-3.11189E-01 3.32399E-02-1.77877E-01
 -1       516-9.61517E-02 3.43370E-02-7.59163E-02
 -1       517 3.11156E-01 3.33264E-02-1.77876E-01
 -1       518 9.61148E-02 3.43636E-02-7.59914E-02
 -1       519 9.61342E-02-3.43677E-02-7.59009E-02
 -1       520 3.11201E-01-3.32456E-02-1.77872E-01
 -3
    1PSTEP                         2           1           1          
  100CL  101 1.000000000         520                     0    1           1
 -4  STRESS      6    1
 -5  SXX         1    4    1    1
 -5  SYY         1    4    2    2
 -5  SZZ         1    4    3    3
 -5  SXY         1    4    1    2
 -5  SYZ         1    4    2    3
 -5  SZX         1    4    3    1
 -1         1 4.59773E+02 1.53338E+02 1.29500E+02 5.47484E+01-1.83718E+01-1.09168E+01
 -1         2-4.59807E+02-1.53367E+02-1.29531E+02-5.47359E+01-1.83679E+01-1.09327E+01
 -1         3 4.59898E+02 1.53392E+02 1.29537E+02-5.47423E+01 1.83702E+01-1.09277E+01
 -1         4-4.59936E+02-1.53415E+02-1.29568E+02 5.47361E+01 1.83693E+01-1.09313E+01
 -1         5 4.54783E+00-1.58025E-01-2.58368E+00-1.00817E+00-2.00101E-01-2.58673E+00
 -1         6-4.72592E+00 2.31264E-01 2.75957E+00 1.16356E+00-7.33444E-02-2.42941E+00
 -1         7 4.72246E+00-5.60809E-02-2.42894E+00 9.61287E-01 7.67696E-02-2.61000E+00
 -1         8-5.00308E+00 1.71878E-01 2.65977E+00-1.21809E+00-7.99626E-02-2.45489E+00
 -1         9-1.87173E-02-8.02172E-03-8.02180E-03 6.22796E-03-2.87108E-05 4.15712E+01
 -1        10-2.52634E+02-1.08272E+02-1.08272E+02-3.30068E+01-4.54872E-05 3.48600E+01
 -1        11 2.52633E+02 1.08272E+02 1.08272E+02 3.30321E+01-4.55526E-05 3.48741E+01
 -1        12 4.47341E+02 1.91718E+02 1.91718E+02 1.71512E-02-2.77824E-08-7.02536E+01
 -1        13 4.60673E+02 1.97432E+02 1.97432E+02 2.36819E+01 4.12939E-05-6.07668E+01
 -1        14 4.60764E+02 1.97471E+02 1.97471E+02-2.36567E+01-4.13251E-05-6.07673E+01
 -1        15-1.21327E-02-5.19975E-03-5.19978E-03-6.51079E-03 2.86111E-05 4.15961E+01
 -1        16-2.52706E+02-1.08303E+02-1.08303E+02 3.30008E+01 4.54013E-05 3.48815E+01
 -1        17 2.52710E+02 1.08304E+02 1.08304E+02-3.30246E+01 4.54765E-05 3.48884E+01
 -1        18-4.47355E+02-1.91724E+02-1.91724E+02-1.34218E-02-9.56765E-09-7.02519E+01
 -1        19-4.60756E+02-1.97467E+02-1.97468E+02-2.36648E+01 4.12999E-05-6.07716E+01
 -1        20-4.60854E+02-1.97509E+02-1.97510E+02 2.36443E+01-4.12959E-05-6.07698E+01
 -1        21-1.01075E-01-1.22017E-01-1.45698E-01-1.31759E-01-1.81789E+00-1.43132E+01
 -1        22-2.58096E+00 2.67830E-01 5.56072E+00 2.40361E-01-9.37146E-01-8.75048E+00
 -1        23 2.34520E+00-3.98508E-01-5.70667E+00-3.75904E-01-8.98053E-01-8.75272E+00
 -1        24 3.86865E+00-2.65084E+00-6.01543E+00 3.14049E-03 9.62066E-03-3.91196E+00
 -1        25 4.10517E+00-1.20161E+00-3.93908E+00-4.86655E-01 4.39772E-01-2.86704E+00
 -1        26 4.15412E+00-1.23923E+00-3.96064E+00 4.88129E-01-4.69926E-01-2.85839E+00
 -1        27 4.54671E-04-4.50156E-02 6.07276E-02 4.90545E-02 1.79983E+00-1.42385E+01
 -1        28-2.61911E+00 3.19996E-01 5.62243E+00-2.97620E-01 8.74097E-01-8.68525E+00
 -1        29 2.52263E+00-3.77303E-01-5.56734E+00 2.92921E-01 8.40073E-01-8.71744E+00
 -1        30-3.97518E+00 2.09248E+00 5.76819E+00-1.92703E-02 3.05969E-03-4.12487E+00
 -1        31-4.46788E+00 8.61075E-01 3.80137E+00 4.05842E-01 3.48275E-01-3.06042E+00
 -1        32-4.71623E+00 7.47677E-01 3.79061E+00-4.35890E-01-4.04958E-01-3.09448E+00
 -1        33-3.77747E+02 5.29835E+00 3.15660E+00 6.05192E+00 2.24951E+00 6.88894E-01
 -1        34-3.46590E+02 7.53136E-01 9.30558E-01 1.44439E+00 1.44252E-01-2.24201E+00
 -1        35-3.02552E+02 8.37750E-01 5.06236E-01 1.37097E+00-4.17962E-01-2.14746E+00
 -1        36-2.58125E+02-6.95966E-01-5.44841E-01 1.05860E+00 4.33451E-01-2.22493E+00
 -1        37-2.16496E+02 4.70432E-01 4.65895E-01 1.25089E+00-4.70006E-01-2.41524E+00
 -1        38-1.73374E+02 2.76992E-01 5.10890E-01 1.02999E+00 6.01939E-02-2.47884E+00
 -1        39-1.30705E+02 7.24349E-01 6.53033E-01 1.38196E+00 1.18470E-01-2.29027E+00
 -1        40-8.73386E+01 9.24439E-01 9.28270E-01 1.41253E+00-2.08594E-01-2.56040E+00
 -1        41-4.33197E+01-3.45227E-01-5.42332E-01 1.00944E+00 4.09830E-01-2.02818E+00
 -1        42-3.99907E+02-1.80086E+01-5.46829E+00-1.57159E+01-5.97898E+00 1.87731E+00
 -1        43-3.65431E+02 4.93279E-02 2.21815E-01 1.52369E+00 3.24580E-01-2.77342E+00
 -1        44-3.23345E+02 1.79854E+00 1.55174E+00 1.68784E+00-1.16598E-02-3.37667E+00
 -1        45-2.80571E+02-1.34213E-01-1.20121E-01 1.19267E+00-2.32907E-02-2.98969E+00
 -1        46-2.37483E+02-1.01746E-01 2.02657E-02 1.43985E+00 5.21276E-03-3.20632E+00
 -1        47-1.94354E+02 5.95093E-01 1.79838E-01 1.61678E+00-3.54969E-01-3.03984E+00
 -1        48-1.50181E+02 1.26231E+00 1.77188E+00 1.68374E+00 1.94112E-01-3.34031E+00
 -1        49-1.07649E+02 1.61627E+00 1.98670E+00 1.46827E+00 1.22680E-01-3.44942E+00
 -1        50-6.43167E+01 1.01037E+00 1.50966E+00 1.20210E+00 5.43490E-01-3.27349E+00
 -1        51-2.21560E+01 3.18305E-01 6.82046E-01 8.67352E-01 4.49928E-01-2.74529E+00
 -1        52 3.77843E+02-5.24936E+00-3.11136E+00-6.24116E+00 2.11107E+00 7.86991E-01
 -1        53 3.45617E+02-6.94056E-01-7.73153E-01-1.36180E+00-3.62886E-01-2.26729E+00
 -1        54 3.03819E+02-2.49265E-01-3.95527E-01-1.31718E+00-1.35476E-01-2.14113E+00
 -1        55 2.56889E+02 5.11506E-01 5.17477E-01-1.12878E+00 6.33409E-02-2.20298E+00
 -1        56 2.17512E+02-5.27459E-01-6.20579E-01-1.18262E+00-1.52225E-01-2.51323E+00
 -1        57 1.72338E+02-6.85032E-01-4.57628E-01-1.68277E+00-6.14208E-01-2.32247E+00
 -1        58 1.30103E+02-4.60221E-01-2.37088E-01-1.16616E+00-5.26387E-01-2.46589E+00
 -1        59 8.78420E+01-2.29621E-01-4.12861E-01-1.34891E+00-2.41941E-01-2.61203E+00
 -1        60 4.36506E+01-3.00364E-01 2.61985E-02-1.17351E+00-4.21965E-01-2.09738E+00
 -1        61 3.99847E+02 1.81380E+01 5.49701E+00 1.57108E+01-6.04915E+00 1.88235E+00
 -1        62 3.65872E+02 3.07288E-01 1.15326E-01-1.45618E+00-1.06977E-01-2.88798E+00
 -1        63 3.23951E+02-5.57485E-01-1.64073E-01-1.65960E+00-4.34293E-01-3.01669E+00
 -1        64 2.80748E+02 5.52421E-01 3.65761E-01-1.40656E+00-2.26650E-01-3.29295E+00
 -1        65 2.37499E+02 4.59671E-02-1.05294E-02-1.63438E+00 1.69360E-02-3.01228E+00
 -1        66 1.93643E+02-1.55622E+00-1.56790E+00-1.71563E+00-6.92422E-02-3.35457E+00
 -1        67 1.51289E+02-2.71731E-01 2.65761E-01-1.65858E+00-8.33054E-01-3.21040E+00
 -1        68 1.08435E+02-2.41821E-01-1.10188E-01-1.41625E+00-6.58176E-01-3.17294E+00
 -1        69 6.48079E+01-5.63780E-01-6.39719E-01-1.62474E+00-3.64335E-01-3.23970E+00
 -1        70 2.25112E+01 2.04006E-02-3.34001E-01-1.03783E+00-2.91716E-01-2.67570E+00
 -1        71-3.78291E+02 5.31762E+00 3.25376E+00-6.31415E+00-2.19028E+00 5.83411E-01
 -1        72-3.44793E+02-1.43539E-01 8.77158E-02-1.54597E+00-6.23218E-01-2.10220E+00
 -1        73-3.02988E+02 7.65840E-01 6.54890E-01-1.12917E+00 3.34880E-01-2.12984E+00
 -1        74-2.59216E+02-5.22073E-01-3.47634E-01-1.23608E+00-3.44901E-01-2.05601E+00
 -1        75-2.15589E+02 2.71032E-01 2.75423E-01-1.41839E+00 3.33207E-01-2.22616E+00
 -1        76-1.74008E+02 4.58919E-01 5.40682E-01-1.08726E+00 1.03666E-01-2.51980E+00
 -1        77-1.29505E+02-3.17754E-01-1.85676E-01-1.57686E+00-5.32038E-01-2.03807E+00
 -1        78-8.55914E+01-5.51604E-01-5.62415E-01-1.19561E+00-4.86596E-01-2.40005E+00
 -1        79-4.42290E+01-7.56991E-02-4.08651E-01-1.06731E+00-1.50031E-01-2.24201E+00
 -1        80-4.00127E+02-1.80478E+01-5.41357E+00 1.56729E+01 5.97934E+00 1.81791E+00
 -1        81-3.65461E+02-8.02591E-01-1.52230E-01-1.74912E+00-5.57396E-01-2.76943E+00
 -1        82-3.23656E+02 9.99320E-01 9.31428E-01-1.67316E+00-2.71586E-01-3.00337E+00
 -1        83-2.80707E+02 1.90735E-01 1.18453E-01-1.25604E+00-7.66914E-02-3.01926E+00
 -1        84-2.37514E+02-8.82697E-02 4.86567E-02-1.81737E+00-1.85410E-02-2.81335E+00
 -1        85-1.94618E+02 2.16559E-01 2.58688E-02-1.68377E+00 5.26986E-01-3.17182E+00
 -1        86-1.50530E+02 3.63047E-01 1.17300E+00-1.54717E+00-4.80893E-01-3.13573E+00
 -1        87-1.08604E+02-6.20670E-01-3.53860E-01-1.59642E+00-5.55412E-01-3.13275E+00
 -1        88-6.52461E+01-9.05634E-02-1.80854E-01-1.34879E+00-6.58064E-01-3.25458E+00
 -1        89-2.25493E+01 3.08155E-01 6.38772E-01-1.07818E+00-2.57756E-01-2.59264E+00
 -1        90 3.78214E+02-5.13637E+00-3.02881E+00 6.31728E+00-2.05221E+00 9.56954E-01
 -1        91 3.44847E+02-3.74846E-01-4.94531E-01 1.45886E+00 3.56424E-01-2.23377E+00
 -1        92 3.03496E+02-2.20011E-01-2.86156E-01 1.28266E+00 1.77933E-01-2.36183E+00
 -1        93 2.59251E+02-5.39235E-01-3.57961E-01 1.52861E+00 4.79022E-01-2.24333E+00
 -1        94 2.15271E+02 3.76819E-01 2.33552E-01 1.29293E+00-3.92661E-01-2.29506E+00
 -1        95 1.73301E+02-5.66285E-01-4.68315E-01 1.50858E+00 6.14086E-01-2.05969E+00
 -1        96 1.30102E+02-2.36087E-01 5.36055E-03 1.24308E+00 5.42636E-01-2.17424E+00
 -1        97 8.55038E+01 1.01465E+00 1.02015E+00 9.15022E-01-2.39423E-01-2.31254E+00
 -1        98 4.44146E+01-4.71289E-01-5.14282E-02 9.17489E-01 6.63756E-01-2.04947E+00
 -1        99 4.00017E+02 1.80868E+01 5.50736E+00-1.57421E+01 6.01767E+00 1.86149E+00
 -1       100 3.66096E+02 1.17337E+00 9.02337E-01 1.61703E+00 3.06491E-01-2.71957E+00
 -1       101 3.23989E+02-1.22092E-01 8.61027E-02 1.76633E+00 5.55364E-01-3.14336E+00
 -1       102 2.80717E+02-3.59921E-01-4.81073E-01 1.71773E+00 3.83411E-01-3.25152E+00
 -1       103 2.37447E+02 6.37706E-02-1.07046E-02 1.77511E+00 2.59093E-02-2.87420E+00
 -1       104 1.93867E+02-7.73285E-01-9.15560E-01 1.65399E+00-1.43985E-01-3.04233E+00
 -1       105 1.51861E+02 4.40300E-01 9.15227E-01 1.63652E+00 9.66991E-01-3.02400E+00
 -1       106 1.09130E+02 1.44474E+00 1.75162E+00 1.17167E+00 6.56397E-01-3.06937E+00
 -1       107 6.54895E+01 5.64744E-01 7.31345E-01 1.28364E+00 4.15207E-01-3.15357E+00
 -1       108 2.30412E+01 4.73060E-02 8.77490E-03 9.14368E-01 1.97803E-01-2.55560E+00
 -1       109 1.87223E-02 2.90865E-03 3.48278E-03-2.83880E-03 2.59810E-03 1.31590E+00
 -1       110 1.99295E+02 8.19163E+01 7.47719E+01 2.07280E+01-3.80614E+00-2.42695E+00
 -1       111-1.99346E+02-8.19412E+01-7.47994E+01 2.06994E+01 3.80384E+00-2.41801E+00
 -1       112 1.99367E+02 8.19420E+01 7.47991E+01-2.07166E+01 3.80858E+00-2.41885E+00
 -1       113-1.99278E+02-8.19188E+01-7.47737E+01-2.07148E+01-3.80109E+00-2.42849E+00
 -1       114 1.10404E+02 4.73162E+01 4.73163E+01 1.12870E+01-2.87480E-05 2.59346E+01
 -1       115 3.32389E+02 1.30731E+02 1.17191E+02 3.79820E+01-9.95721E+00-7.72246E+00
 -1       116 3.18260E+02 1.36398E+02 1.36398E+02 1.09362E+01 6.63641E-05-4.12192E+01
 -1       117-1.10387E+02-4.73087E+01-4.73087E+01-1.12679E+01-2.86736E-05 2.59280E+01
 -1       118-3.32412E+02-1.30749E+02-1.17210E+02-3.79627E+01-9.95268E+00-7.72866E+00
 -1       119-3.18279E+02-1.36406E+02-1.36406E+02-1.09296E+01 6.63729E-05-4.12178E+01
 -1       120 3.18312E+02 1.36420E+02 1.36420E+02-1.09096E+01-6.64196E-05-4.12177E+01
 -1       121 3.32507E+02 1.30778E+02 1.17239E+02-3.79693E+01 9.95890E+00-7.71688E+00
 -1       122 1.10432E+02 4.73280E+01 4.73281E+01-1.12826E+01 2.86484E-05 2.59512E+01
 -1       123-1.10415E+02-4.73208E+01-4.73208E+01 1.12629E+01 2.85738E-05 2.59461E+01
 -1       124-3.32532E+02-1.30795E+02-1.17256E+02 3.79496E+01 9.95543E+00-7.71692E+00
 -1       125-3.18320E+02-1.36423E+02-1.36424E+02 1.09046E+01-6.63921E-05-4.12138E+01
 -1       126 8.76204E+01 3.65828E+01 3.48274E+01 9.10857E+00-9.94506E-01 7.35305E-01
 -1       127 1.55002E-02 6.64295E-03 6.64286E-03 5.18774E-03-1.19017E-05 2.12239E+01
 -1       128-8.75928E+01-3.65802E+01-3.48231E+01-9.10458E+00-9.89946E-01 7.39165E-01
 -1       129 1.96866E+02 8.43716E+01 8.43718E+01 1.12204E-02-3.99479E-08-2.91520E+01
 -1       130 8.76520E+01 3.65907E+01 3.48382E+01-9.10103E+00 9.96727E-01 7.39550E-01
 -1       131-8.76269E+01-3.65856E+01-3.48344E+01 9.08928E+00 9.93356E-01 7.44013E-01
 -1       132 1.25608E-02 5.38320E-03 5.38314E-03-6.31307E-03 1.17833E-05 2.12362E+01
 -1       133-1.96878E+02-8.43768E+01-8.43770E+01-1.34991E-02-2.11349E-08-2.91471E+01
 -1       134-1.66828E-01-7.23722E-02 1.17443E-01-3.53422E-02-9.39611E-02-1.36709E+01
 -1       135-2.02880E+00-2.23681E+00-8.11153E+00-5.03576E-02-4.80255E-01-1.00101E+01
 -1       136 1.85831E+00 1.91001E+00 7.97339E+00-6.36566E-03 6.03304E-01-1.00408E+01
 -1       137-2.01925E+00-2.18132E+00-7.98038E+00 3.80592E-02 4.41153E-01-1.00537E+01
 -1       138 1.65273E+00 2.08758E+00 8.11436E+00-6.28010E-02-6.88065E-01-1.01186E+01
 -1       139-8.87083E-01-1.72620E+00-7.02862E+00 1.45347E-01-1.69831E+00-1.14551E+01
 -1       140 1.22340E+00-1.34541E+00-6.26846E+00-6.07536E-01-1.33295E-01-6.20301E+00
 -1       141-4.17149E-01-2.94418E+00-7.88500E+00 2.22141E-02 1.43262E-01-7.79298E+00
 -1       142-1.65878E+00 1.17257E+00 6.14562E+00 5.83603E-01-2.68017E-01-6.25330E+00
 -1       143 5.73190E-01 1.52243E+00 6.85103E+00-2.78713E-01-1.78523E+00-1.15666E+01
 -1       144 8.86796E-02 2.56301E+00 7.78905E+00-2.07352E-01-9.91036E-04-7.93422E+00
 -1       145-4.32206E-01-2.93536E+00-7.84412E+00-1.74417E-02-1.41685E-01-7.81075E+00
 -1       146 1.31244E+00-1.30485E+00-6.17631E+00 5.70562E-01 5.01103E-02-6.22494E+00
 -1       147-7.95397E-01-1.66332E+00-6.81571E+00-1.86619E-01 1.66862E+00-1.14369E+01
 -1       148 7.70758E-01 1.50919E+00 6.92297E+00 2.28866E-01 1.75272E+00-1.14545E+01
 -1       149-1.75604E+00 1.00247E+00 5.99944E+00-6.35090E-01 1.65254E-01-6.22687E+00
 -1       150 2.26287E-01 2.50096E+00 7.75768E+00 1.13612E-01-2.78106E-02-7.92054E+00
 -1       151-7.86735E-03-4.69649E-02-2.42938E-02-6.32153E-02-2.18638E+00-1.31334E+01
 -1       152-3.34374E+00-2.05001E+00-5.25615E+00 5.87855E-02-8.00473E-01-1.19572E+01
 -1       153 2.99052E+00 1.91438E+00 5.36032E+00-1.27608E-01-9.42669E-01-1.20725E+01
 -1       154-3.17112E+00-3.08463E+00-6.15399E+00 7.00578E-03-1.73026E-03-1.01358E+01
 -1       155-3.34748E+00-2.00856E+00-5.14782E+00-6.54941E-02 7.39177E-01-1.19567E+01
 -1       156 9.71030E-03-6.56519E-03 1.62688E-01 1.53549E-02 2.10744E+00-1.30361E+01
 -1       157 3.02381E+00 1.78218E+00 5.28985E+00 2.34263E-02 7.71810E-01-1.20049E+01
 -1       158 2.66961E+00 2.65710E+00 6.13118E+00-8.55422E-02-5.47659E-02-1.02761E+01
 -1       159 4.62584E-01-9.53378E-02-5.57759E-01 5.81079E-03 3.38669E-01-1.63299E+01
 -1       160-8.48950E-01-3.19226E-01 4.02345E-02-1.41549E-01 2.17925E-01-1.55464E+01
 -1       161 7.22894E-02 3.77751E-02-1.53301E-02 4.21573E-01-3.86629E-03-1.82008E+01
 -1       162 1.98604E-01 1.17257E-01-3.40223E-01 1.66707E-03 3.55643E-01-1.67449E+01
 -1       163 6.96448E-01 9.92120E-02-4.80634E-01 1.17436E-01 2.70393E-01-1.67484E+01
 -1       164-8.45221E-01-7.11199E-02 3.89485E-01-8.90440E-02 3.27244E-01-1.69350E+01
 -1       165-1.91202E-01-1.54964E-01-1.08355E-01-2.27753E-01 7.94735E-01-1.72775E+01
 -1       166-3.89065E-02-6.27007E-02-6.60333E-02-1.54009E-01 4.55104E-02-1.57640E+01
 -1       167-9.79887E-01 3.09933E-01-9.02484E-02 3.63706E-01 2.35763E-01-1.78626E+01
 -1       168-1.02796E-01 1.49065E-02 4.39385E-03 2.39725E-02 1.01589E+01-1.63790E+01
 -1       169-3.57197E-02-1.06923E-02 3.49476E-03-4.89807E-03 5.24346E+00 6.41360E+00
 -1       170 2.16628E+02 3.72607E+01 3.14677E+01 2.13980E+01-2.21787E+00-3.39945E+00
 -1       171 1.88463E+02-8.43066E+00-4.39854E+00-6.66648E+00 4.86212E+00-5.28361E+00
 -1       172-2.16663E+02-3.72755E+01-3.14506E+01-2.13709E+01-2.27051E+00-3.42399E+00
 -1       173-1.88693E+02 8.38773E+00 4.35427E+00 6.63634E+00 4.85471E+00-5.29863E+00
 -1       174 3.19039E-01 1.30080E-01 2.00619E-01 9.59178E-02 1.32211E-02-1.68168E+01
 -1       175 3.38407E+00 8.11736E-01 6.96368E-01 9.96091E-02 6.09104E-02-1.06332E+01
 -1       176 2.01346E+01 1.05637E-01-9.57695E-01 2.55799E-01 1.18527E-01-1.00334E+01
 -1       177-3.59015E+00-7.45029E-01-4.33440E-01 3.43403E-01-7.23575E-02-1.09148E+01
 -1       178-2.14726E+01-4.10264E-01-3.55125E-01 2.71974E-01 1.91426E-01-1.06662E+01
 -1       179-1.73687E+02 8.11891E-01 1.53053E-03 6.95493E-01-1.91951E-02-9.72019E+00
 -1       180-1.90725E+02-2.01822E-01-1.18849E+00-1.51450E-01 2.63580E-01-9.90721E+00
 -1       181-1.36619E-01 1.08843E-01 6.15131E-02-1.35176E-01 1.32882E+00-1.46146E+01
 -1       182-1.51855E+02-4.88138E-01-8.09207E-01 5.89198E-02-5.06131E-01-9.58842E+00
 -1       183-1.70876E+02-5.11661E-02 1.03702E+00-1.02640E+00 1.86807E-01-1.03252E+01
 -1       184 5.55882E-01 2.53165E-01-1.11591E+00-1.93543E-01 3.61592E-02-1.69794E+01
 -1       185-1.29835E+02-1.83550E-01-1.54800E+00-1.26660E+00 1.78003E-01-9.89438E+00
 -1       186-1.50423E+02 1.95484E-01 1.56516E+00-1.31816E+00-1.18582E-01-9.79615E+00
 -1       187-1.18429E+00-4.89266E-01 8.92866E-01-6.99610E-02 1.76563E-01-1.62171E+01
 -1       188-1.09072E+02 2.42759E-01 9.62243E-02 5.84862E-01-5.73082E-01-1.03576E+01
 -1       189-1.28255E+02-1.69704E-01-5.97840E-02 6.02906E-01 5.86496E-01-1.03062E+01
 -1       190 7.30320E-01 1.37766E-01-1.03550E+00 3.19705E-01 1.53219E-01-1.71185E+01
 -1       191-8.70961E+01-1.05670E-01-8.38812E-01-1.90463E-01-2.78547E-01-1.00464E+01
 -1       192-1.06769E+02 5.95530E-02 1.28555E+00-8.10332E-01-5.67665E-02-1.04329E+01
 -1       193-6.84465E-01-1.81072E-01 1.06438E+00 3.15131E-01-1.20475E-01-1.74417E+01
 -1       194-6.59162E+01-4.82764E-01-1.08416E+00-5.23478E-02-4.39020E-01-9.59115E+00
 -1       195-8.41957E+01 1.17564E-01 1.35094E+00-1.22324E+00 3.06294E-01-1.04657E+01
 -1       196 9.03946E-01 6.68778E-01-7.50828E-01 5.38331E-02 2.18851E-01-1.66838E+01
 -1       197-4.43051E+01-4.47572E-01-6.62588E-01 1.10918E-02-5.18867E-01-9.39379E+00
 -1       198-6.30990E+01 6.67838E-02 1.22386E+00-1.22630E+00 3.83801E-01-1.01478E+01
 -1       199-1.63286E-01-3.03081E-01-1.12783E+00-4.36410E-01 2.03478E-01-1.64857E+01
 -1       200-2.31004E+01-5.15992E-01-1.82050E+00-3.41644E-01 2.53772E-01-9.38261E+00
 -1       201-4.14703E+01-5.53303E-02 1.13157E+00-9.76699E-01 7.12078E-02-1.04226E+01
 -1       202-6.45530E-01-4.41209E-01 7.33474E-02-1.58056E-01 3.09986E-01-1.60748E+01
 -1       203 1.08774E-01 1.17479E+00-1.56676E-01 6.36405E-02 4.61693E-01-1.66726E+01
 -1       204 1.73185E+02-1.15259E+00-5.78928E-01-7.01890E-01-7.04853E-02-9.83324E+00
 -1       205 1.90713E+02 1.35045E-01 1.30165E+00-2.64306E-01 1.45937E-01-9.70860E+00
 -1       206 1.52028E+02 1.75340E-01 8.68644E-01 1.82286E-01-3.15400E-01-9.90397E+00
 -1       207 1.71430E+02 7.84339E-02-1.12291E+00 8.32175E-01-1.19978E-01-1.03223E+01
 -1       208 1.30323E+02 4.07431E-01 1.57659E+00 1.37449E+00-1.71872E-01-9.72956E+00
 -1       209 1.49794E+02-4.39626E-01-1.65452E+00 1.18305E+00 1.66918E-01-9.69281E+00
 -1       210 1.09649E+02-8.69990E-03 5.36115E-01-2.29210E-01-6.39891E-01-1.04288E+01
 -1       211 1.27898E+02 1.91437E-03-5.32328E-01-2.12154E-01 6.38467E-01-1.04150E+01
 -1       212 8.68367E+01 5.09351E-01 7.68353E-01-7.01153E-02-4.44514E-01-9.69764E+00
 -1       213 1.05947E+02-1.39470E-01-1.30399E+00 1.07944E+00 2.05619E-01-1.04511E+01
 -1       214 6.52712E+01-1.60414E-02 4.08814E-01 1.14183E-01-2.72170E-01-1.01384E+01
 -1       215 8.44013E+01-1.11159E-01-1.29703E+00 6.47128E-01-1.14596E-01-1.02606E+01
 -1       216 4.41930E+01 2.06973E-02 4.04251E-01 2.57018E-01-2.75428E-01-9.94172E+00
 -1       217 6.33706E+01-2.04879E-01-1.31343E+00 9.42473E-01-1.07195E-01-1.01976E+01
 -1       218 2.22514E+01 1.99623E-01 1.36463E+00 5.37288E-02-3.27946E-01-1.00251E+01
 -1       219 4.08225E+01-2.55857E-01-1.05021E+00 8.80438E-01 9.87983E-02-1.06481E+01
 -1       220-1.03561E+00 2.68114E-02-2.80581E-01-3.94385E-01-2.85224E-01-1.59363E+01
 -1       221-1.54506E+00 1.11668E-01-5.80067E-01 3.14504E-01-3.53469E-02-1.79915E+01
 -1       222-9.21807E-02 1.21802E-01 1.40546E-02-1.20612E+00-4.26232E-02-1.67793E+01
 -1       223-8.08505E-01 1.94901E-01-4.72177E-01 5.63318E-01-1.65025E-01-1.61170E+01
 -1       224-1.26180E+00 6.50924E-02-5.54307E-01-7.77726E-01-5.72681E-02-1.75374E+01
 -1       225 1.18909E+00-2.40667E-01 4.90530E-01 7.68671E-01-1.25568E-01-1.74618E+01
 -1       226-1.55867E+00-7.05890E-02-3.92487E-01 7.60108E-01-4.58001E-01-1.67718E+01
 -1       227-1.25019E+00-4.91224E-03-9.55429E-02 4.95465E-01-1.90214E-01-1.62324E+01
 -1       228-7.77875E-01-1.68695E-01 2.12880E-01-1.46994E-01 4.99964E-02-1.72340E+01
 -1       229-2.34801E-02-1.13009E-01-3.31886E-02 3.39397E-03-1.00922E+01-1.61833E+01
 -1       230 2.16736E+02 3.72740E+01 3.14322E+01-2.13871E+01 2.26245E+00-3.33168E+00
 -1       231-4.20127E-02-1.28772E-02-5.60544E-03-4.20890E-03-5.22526E+00 6.48323E+00
 -1       232 1.88722E+02-8.60643E+00-4.46659E+00 6.64708E+00-4.78667E+00-5.16617E+00
 -1       233-2.16777E+02-3.72743E+01-3.14361E+01 2.13625E+01 2.28454E+00-3.34768E+00
 -1       234-1.88916E+02 8.30442E+00 4.39510E+00-6.72300E+00-4.83805E+00-5.20782E+00
 -1       235 4.02163E-02 5.23087E-02 2.59300E-01 1.96340E-02 9.62777E-02-1.68645E+01
 -1       236 3.31427E+00 7.66950E-01 5.12215E-01-5.89797E-02 1.18478E-02-1.07927E+01
 -1       237 2.04160E+01-1.37362E-01-1.25879E+00-5.69988E-01 2.19609E-01-9.88127E+00
 -1       238-3.71859E+00-9.72516E-01-2.13964E-01-5.56129E-02 2.85677E-02-1.08373E+01
 -1       239-2.15195E+01-5.51457E-01 2.08485E-01 1.55986E-01 5.59472E-02-1.05041E+01
 -1       240-1.91243E+02 4.06081E-02-8.39691E-01 6.48897E-01 6.68320E-02-9.43195E+00
 -1       241-1.73866E+02 1.96266E-01-1.09663E+00 2.38150E-01-1.65003E-01-9.51636E+00
 -1       242 2.26438E-01 5.05388E-02 3.86019E-01 5.37261E-01-1.15295E+00-1.40216E+01
 -1       243-1.71639E+02-1.43832E-01 3.11681E-01 1.19059E-01-4.83149E-01-1.06932E+01
 -1       244-1.52323E+02-1.54342E-01-1.74988E-01-2.38347E-01 7.60387E-01-1.03047E+01
 -1       245 2.96970E-01 1.45939E+00-4.00305E-01-1.20823E-01-1.12134E-02-1.71791E+01
 -1       246-1.50501E+02-3.82306E-02 1.40899E+00 1.35567E+00 1.83924E-01-9.72146E+00
 -1       247-1.30490E+02-2.09400E-01-1.53894E+00 8.39008E-01 5.70190E-02-9.51233E+00
 -1       248 2.97809E-01 2.62757E-01 1.50325E+00-4.82309E-01 3.33284E-02-1.68420E+01
 -1       249-1.28912E+02 2.36330E-01 5.15235E-01 3.79456E-01-6.45224E-01-1.05816E+01
 -1       250-1.08381E+02-1.76205E-01-4.56035E-01 3.69844E-01 6.52358E-01-1.05846E+01
 -1       251 3.74464E-01 2.17436E+00-6.76565E-01-6.24212E-01-2.01787E-01-1.66317E+01
 -1       252-1.06302E+02 4.08398E-02 1.39480E+00 4.29251E-01-1.78615E-01-9.92050E+00
 -1       253-8.75634E+01 1.13789E-02-5.68211E-01 2.63749E-01 3.13881E-01-9.85030E+00
 -1       254 1.91544E-02-1.60006E+00 8.68568E-01 6.41656E-02 7.01494E-02-1.72492E+01
 -1       255-8.50606E+01 8.15925E-02 1.42856E+00 1.45733E+00-8.20067E-02-9.88493E+00
 -1       256-6.61455E+01-6.78074E-01-1.77968E+00 7.09288E-01 5.36680E-02-9.15371E+00
 -1       257 2.73190E-01 4.30047E-02-9.78158E-01 6.67469E-01 7.93804E-03-1.67284E+01
 -1       258-6.47124E+01 4.30915E-01 6.67931E-01 6.45088E-01-4.79906E-01-1.01899E+01
 -1       259-4.48121E+01-3.46313E-01-1.71217E+00 1.10665E+00 2.50849E-02-1.04003E+01
 -1       260-1.05269E-01 2.15574E+00-3.12556E-01 1.88924E-01 1.12057E-01-1.63548E+01
 -1       261-4.26583E+01-3.83618E-01-1.48798E-01-4.49296E-01-4.82165E-01-1.01523E+01
 -1       262-2.40627E+01-1.34972E-02-9.76342E-01-6.94741E-02 1.10687E-01-1.02630E+01
 -1       263 4.38063E-01 5.36923E-01 4.16831E-01 1.99674E-01-5.59938E-01-1.68469E+01
 -1       264 2.10925E-01 9.83495E-01-3.83043E-01 3.02129E-02 4.56474E-01-1.73346E+01
 -1       265 1.72599E+02-1.12884E+00-1.63103E-01 2.32915E-02 6.29936E-02-1.01262E+01
 -1       266 1.90798E+02-2.26106E-01 1.11214E+00-6.54415E-03-2.28724E-01-9.62771E+00
 -1       267 1.52125E+02-4.72382E-02 5.65046E-01-2.51392E-01 2.89892E-01-9.90539E+00
 -1       268 1.70901E+02-1.45569E-01-1.29508E+00-3.90037E-01-4.49591E-02-9.98471E+00
 -1       269 1.30057E+02 3.53262E-01 8.20180E-01-6.69215E-01 4.80225E-01-1.00954E+01
 -1       270 1.49382E+02-4.04639E-01-1.44823E+00-1.13500E+00-3.45270E-01-1.03033E+01
 -1       271 1.08767E+02 2.98872E-01 1.49045E+00-8.50258E-01-2.00637E-02-9.42096E+00
 -1       272 1.28390E+02-2.73559E-01-1.49182E+00-9.19343E-01-4.17110E-02-9.40685E+00
 -1       273 8.73586E+01 9.68006E-02 1.42690E-01 2.59869E-01 7.84027E-01-1.02609E+01
 -1       274 1.06761E+02 3.48812E-02-4.48016E-01-1.35875E-01-5.05225E-01-1.07209E+01
 -1       275 6.49469E+01-1.32254E-01 6.71034E-01-6.53218E-01 3.85501E-01-1.03405E+01
 -1       276 8.50369E+01-3.36994E-01-1.34431E+00-8.32210E-01 7.90297E-02-1.01523E+01
 -1       277 4.40128E+01-1.14446E-01 1.68086E+00-1.42498E+00-2.68598E-01-1.00457E+01
 -1       278 6.36055E+01-7.46958E-01-1.54676E+00-7.50472E-01-8.66113E-02-9.30882E+00
 -1       279 2.29496E+01-2.21403E-01-4.38645E-02 5.58106E-01 6.49948E-01-1.06943E+01
 -1       280 4.21551E+01 2.51737E-01 1.13619E-01 8.26583E-01-8.13936E-01-1.03812E+01
 -1       281-6.74928E+01-4.31253E-02 5.82193E-01-2.45151E-01-5.03502E-02-1.72937E+00
 -1       282-1.11033E+02-1.60892E-01 9.41256E-02 5.21163E-02-2.35765E-01-5.14806E+00
 -1       283-1.90207E+02-4.77231E-01-5.73659E-01-2.06905E-01 2.26363E-02-4.80425E+00
 -1       284-3.67703E+02-8.56384E-01 6.11434E-01-1.72755E-01 1.47698E-02-4.76264E+00
 -1       285-2.80866E+02 1.92510E-01 1.07115E-02-4.85499E-02 6.02205E-02-5.80682E+00
 -1       286-2.37742E+02 3.42639E-02-1.70894E-01 5.11625E-03 6.64354E-03-4.76074E+00
 -1       287-1.52393E+02 1.45810E-01-1.23583E-01 4.02442E-02 9.57760E-02-6.13246E+00
 -1       288-3.22356E+02-5.15322E-01-1.58027E-01 2.18104E-01-1.57203E-01-5.36277E+00
 -1       289-2.81876E+01 7.64050E-01-1.75292E+00 5.87532E-02-7.58313E-03-2.28685E-01
 -1       290-4.16960E+02 3.42713E+00 3.64963E+01-2.38265E-02 1.44820E-02-6.54265E+00
 -1       291-4.25717E+02-8.06257E+01-3.71033E+01-1.98539E-02 1.74734E-03-3.11440E+01
 -1       292-4.28930E+02-5.85642E+01-2.04743E+01-2.41862E+01-1.11780E+01-1.34914E+01
 -1       293-3.92313E+02 5.93818E+00 6.97889E+00 6.06163E+00 4.70083E+00-9.71646E-02
 -1       294-4.29000E+02-5.85778E+01-2.04970E+01 2.41549E+01 1.11848E+01-1.34927E+01
 -1       295-3.92521E+02 5.84002E+00 6.86708E+00-6.15306E+00-4.63931E+00-1.66889E-01
 -1       296-1.46918E+01 5.74626E-01-7.63604E-01 7.04833E-02 1.15858E-01-1.13932E+00
 -1       297-1.43749E+01 5.50205E-01-8.02087E-01 8.01016E-01-3.92411E-01-4.98788E-01
 -1       298-3.69722E+01-1.22474E-01 7.49507E-01 1.04557E+00 4.96858E-01-1.08922E+00
 -1       299-1.43882E+01 8.98584E-01-8.96567E-01-7.37300E-01 5.01069E-01-7.80857E-01
 -1       300-3.81645E+01 2.16226E-01 2.92506E-01-1.03256E+00-3.88361E-01-1.10912E+00
 -1       301-3.54519E+02 3.40333E-01-9.80373E-01 2.05246E+00-6.78861E-01-1.20564E+00
 -1       302-3.77923E+02-4.34765E+00-2.32172E+00 7.35167E-01-9.33446E-01-2.00417E+00
 -1       303-3.83248E+02 1.51983E+00 5.90091E+00-1.43146E-01 2.05281E-02-1.39615E+00
 -1       304-3.09801E+02 8.03139E-01-1.23940E+00 2.21377E+00-9.84616E-01-1.86156E+00
 -1       305-3.37826E+02-9.81266E-01 6.53830E-01 1.09052E+00 8.31029E-01-2.32112E+00
 -1       306-3.45524E+02 1.43230E-01 2.17911E+00 1.20665E-01 5.73022E-01-3.99225E+00
 -1       307-2.68880E+02-7.40170E-02-1.04208E+00 2.36997E+00-5.67619E-01-2.53762E+00
 -1       308-2.92513E+02 1.97402E-01 1.12450E+00 2.44934E+00 5.49040E-01-2.53984E+00
 -1       309-3.01112E+02-2.67175E+00-1.61156E+00 1.62835E-01 6.59063E-02-5.24088E+00
 -1       310-2.23935E+02 1.01895E+00-9.15175E-01 1.43589E+00-8.80327E-01-1.22257E+00
 -1       311-2.50969E+02-9.88158E-01 9.52895E-01 1.46552E+00 9.59001E-01-1.27411E+00
 -1       312-2.61170E+02 2.24514E+00 1.38039E+00 6.61395E-02 7.33202E-02-5.06845E+00
 -1       313-1.80684E+02 2.63522E-01-1.14183E+00 2.26758E+00-5.58431E-01-1.62171E+00
 -1       314-2.06588E+02-5.97148E-01 9.10792E-01 1.53047E+00 6.06638E-01-1.87915E+00
 -1       315-2.16132E+02-2.81821E+00-2.56804E+00-3.21016E-02-1.07208E-02-3.94268E+00
 -1       316-1.38039E+02 7.38475E-01-1.55153E+00 2.91433E+00-9.23510E-01-1.41368E+00
 -1       317-1.64202E+02-9.29615E-01 6.93296E-01 1.97278E+00 4.97777E-01-2.69517E+00
 -1       318-1.72794E+02-1.95800E+00 3.74103E-01-4.51803E-01 8.91024E-02-5.68107E+00
 -1       319-9.61107E+01 4.62284E-01-1.70347E+00 2.65267E+00-1.06033E+00-1.65421E+00
 -1       320-1.21330E+02-5.70601E-01 9.01495E-01 1.62418E+00 6.62140E-01-2.69055E+00
 -1       321-1.29178E+02 6.48371E-01 1.58484E+00-1.68966E-01 3.77611E-01-4.62773E+00
 -1       322-5.36609E+01-1.60775E-01-1.05105E+00 1.13298E+00-8.70220E-01-1.64014E+00
 -1       323-7.69885E+01 5.44938E-01 1.45589E+00 1.19986E+00 5.42367E-01-2.48618E+00
 -1       324-8.76644E+01-7.97388E-02-3.35147E-02 6.71487E-02 6.93620E-01-2.12306E+00
 -1       325-4.59922E+01 2.00704E+00 9.38004E-01 4.23622E-01-2.01506E-01-7.98234E-01
 -1       326-3.54502E+02 2.37925E-01-8.71092E-01-1.26065E+00 8.18247E-01-2.24834E+00
 -1       327-3.78534E+02-3.80778E+00-2.17529E+00-1.08095E+00 8.41650E-01-2.56078E+00
 -1       328-3.10394E+02 1.09193E+00-1.11508E+00-1.80380E+00 8.33938E-01-1.50647E+00
 -1       329-3.38283E+02-1.14637E+00 7.17587E-01-1.79804E+00-1.00889E+00-1.31182E+00
 -1       330-2.69219E+02 4.35016E-02-1.03272E+00-2.46073E+00 6.20092E-01-2.63483E+00
 -1       331-2.92448E+02 1.18650E-01 1.18560E+00-2.38382E+00-4.58158E-01-2.66801E+00
 -1       332-2.22707E+02 1.13377E+00-9.06135E-01-1.60695E+00 9.26786E-01-1.45350E+00
 -1       333-2.52329E+02-1.02352E+00 9.29911E-01-1.64246E+00-9.75906E-01-1.50126E+00
 -1       334-1.81124E+02 4.25912E-01-1.23328E+00-2.42070E+00 6.51952E-01-1.80009E+00
 -1       335-2.06416E+02-6.26678E-01 8.29373E-01-1.77472E+00-6.31846E-01-1.97958E+00
 -1       336-1.38385E+02 4.19172E-01-1.40317E+00-1.98222E+00 1.19338E+00-2.66575E+00
 -1       337-1.64187E+02 3.01419E-01 1.12189E+00-2.07889E+00-5.36086E-01-3.32306E+00
 -1       338-9.66464E+01 1.32044E-01-1.21148E+00-1.69310E+00 6.02487E-01-2.46166E+00
 -1       339-1.22622E+02-6.27486E-01 1.29755E+00-2.90237E+00-1.16159E+00-1.77837E+00
 -1       340-5.40582E+01 4.26853E-01-4.21163E-01-9.19708E-01 6.82442E-01-1.28428E+00
 -1       341-7.72879E+01-4.29038E-01 1.38766E+00-1.77195E+00-7.11127E-01-1.22658E+00
 -1       342 6.35947E+01 6.38742E-02-8.70955E-02 1.04402E-01-2.01136E-01-1.11145E+00
 -1       343 1.06321E+02-6.45983E-02 3.23399E-01-2.29997E-01-6.91741E-02-5.23064E+00
 -1       344 1.44973E+02 3.85113E-01 8.33312E-01-1.15188E-02-7.15524E-02-5.17358E+00
 -1       345 2.79246E+02-1.54447E-01 4.73186E-01 3.41974E-02 3.21169E-01-6.39080E+00
 -1       346 2.37670E+02-1.21765E-01-2.55785E-02 9.33882E-02 2.11058E-02-5.00033E+00
 -1       347 1.92893E+02 1.91104E-01 1.54958E-01 2.33963E-02-2.43721E-01-5.15586E+00
 -1       348 3.64021E+02 1.19948E+00 1.34544E-02-4.41777E-02-1.07860E-01-4.70355E+00
 -1       349 3.19927E+02 3.48987E-01 4.22692E-01-3.97289E-02-6.06949E-02-4.79348E+00
 -1       350 2.64744E+01-1.92349E-01 2.90585E+00-5.22317E-02 7.61653E-02-1.01525E+00
 -1       351 4.16994E+02-3.54679E+00-3.65109E+01 5.84106E-02-6.26090E-04-6.58059E+00
 -1       352 4.28923E+02 5.84901E+01 2.04423E+01 2.42191E+01-1.11892E+01-1.34876E+01
 -1       353 4.25734E+02 8.06006E+01 3.71144E+01 3.08266E-02 5.07390E-03-3.11449E+01
 -1       354 3.92196E+02-5.97184E+00-6.95353E+00-6.07485E+00 4.63184E+00-1.32716E-01
 -1       355 4.29011E+02 5.85039E+01 2.04573E+01-2.41614E+01 1.11832E+01-1.35129E+01
 -1       356 3.92328E+02-6.03280E+00-6.91272E+00 6.10806E+00-4.65382E+00-1.43169E-01
 -1       357 1.60124E+01-3.74553E-01 1.02770E+00-1.55027E-02 3.23220E-02-1.65996E+00
 -1       358 1.50294E+01-2.23114E-01 1.11495E+00-1.05740E+00-3.45149E-01-1.26661E+00
 -1       359 3.57448E+01-4.84486E-01-5.06262E-01-1.09372E+00 5.70330E-01-1.34203E+00
 -1       360 1.50988E+01-9.42877E-02 1.14734E+00 9.77977E-01 3.54120E-01-1.30752E+00
 -1       361 3.60939E+01-4.25037E-01-5.12011E-01 8.96163E-01-4.74261E-01-1.16599E+00
 -1       362 3.53776E+02-5.85961E-01 8.54975E-01-1.49657E+00-6.87287E-01-1.56649E+00
 -1       363 3.78405E+02 4.41178E+00 2.32241E+00-4.94900E-01-6.25991E-01-1.68747E+00
 -1       364 3.84378E+02-1.09188E+00-5.59699E+00 2.71959E-02-5.50932E-02-1.00782E+00
 -1       365 3.10595E+02-4.17691E-01 1.03464E+00-2.37900E+00-6.74364E-01-1.64412E+00
 -1       366 3.36137E+02 4.94923E-01-8.98502E-01-1.59395E+00 5.38595E-01-1.88645E+00
 -1       367 3.46040E+02 2.92885E+00 2.45262E+00-7.45419E-02-1.18420E-01-4.09727E+00
 -1       368 2.67083E+02-5.59319E-01 1.27199E+00-1.77308E+00-8.72127E-01-3.10164E+00
 -1       369 2.94531E+02 2.48089E-01-1.26348E+00-2.16013E+00 1.04418E+00-2.93520E+00
 -1       370 3.03007E+02 2.71455E+00 7.34026E-02-3.34485E-01-2.92956E-02-5.30773E+00
 -1       371 2.24920E+02-7.50135E-01 1.04539E+00-2.20382E+00-6.01278E-01-1.17640E+00
 -1       372 2.49896E+02 6.58719E-01-1.23081E+00-2.26166E+00 6.15274E-01-1.11555E+00
 -1       373 2.59936E+02-1.11741E-01 1.70108E+00-1.27179E-01-3.38696E-01-5.18685E+00
 -1       374 1.79902E+02-9.88924E-01 1.02808E+00-2.02401E+00-9.55689E-01-1.83788E+00
 -1       375 2.08348E+02 8.98324E-01-6.07809E-01-9.65544E-01 8.44120E-01-2.30866E+00
 -1       376 2.16650E+02-8.53086E-02-1.16694E+00 3.89378E-01 4.93904E-01-4.59388E+00
 -1       377 1.37712E+02-6.40060E-01 8.54148E-01-2.23296E+00-6.25525E-01-1.96568E+00
 -1       378 1.63245E+02 6.30123E-01-8.67918E-01-1.64559E+00 8.56008E-01-1.58697E+00
 -1       379 1.73899E+02 3.95230E+00 3.29308E+00 1.43782E-01 6.62147E-02-3.44342E+00
 -1       380 9.65975E+01-3.17479E-01 1.18777E+00-2.87837E+00-5.40019E-01-1.83176E+00
 -1       381 1.19774E+02 1.46913E-01-9.90742E-01-2.20666E+00 6.63042E-01-1.99372E+00
 -1       382 1.30064E+02 3.21086E+00 2.64630E+00 3.91154E-01-3.56019E-02-4.94222E+00
 -1       383 5.15971E+01-4.47576E-01 7.93581E-01-1.46878E+00-8.67640E-01-1.37239E+00
 -1       384 7.77217E+01 3.68495E-01-1.18046E+00-9.31679E-01 8.95751E-01-2.10039E+00
 -1       385 9.01534E+01 1.37228E+00 9.62516E-01 5.83042E-01 6.64103E-01-2.34436E+00
 -1       386 4.58111E+01 1.15441E+00 1.25947E+00-8.74572E-02-1.56077E-01-7.14005E-01
 -1       387 3.78789E+02 4.69891E+00 2.28613E+00 6.16268E-01 4.88913E-01-1.83447E+00
 -1       388 3.52822E+02-3.67881E-01 7.92474E-01 1.47349E+00 6.11905E-01-1.65805E+00
 -1       389 3.35971E+02 6.44039E-01-7.45054E-01 1.69303E+00-6.47802E-01-1.92730E+00
 -1       390 3.10412E+02-5.10985E-01 1.08118E+00 2.32903E+00 5.97599E-01-1.70240E+00
 -1       391 2.94511E+02 1.12187E+00-7.23181E-01 2.00875E+00-7.94386E-01-2.51345E+00
 -1       392 2.66390E+02-8.90506E-01 1.28799E+00 2.85066E+00 1.12549E+00-1.85264E+00
 -1       393 2.50218E+02-2.81664E-01-1.32063E+00 1.58920E+00-7.75412E-01-2.98845E+00
 -1       394 2.24958E+02 8.54516E-02 1.26925E+00 1.52355E+00 8.71557E-01-2.95543E+00
 -1       395 2.08511E+02 9.21427E-01-9.02236E-01 1.86378E+00-1.10760E+00-1.28561E+00
 -1       396 1.80612E+02-1.27288E+00 8.37224E-01 1.83584E+00 8.41457E-01-1.43603E+00
 -1       397 1.63816E+02 9.47532E-01-7.84096E-01 1.68469E+00-1.04628E+00-1.71182E+00
 -1       398 1.37374E+02-1.86890E-01 8.81243E-01 2.23694E+00 5.94923E-01-2.05985E+00
 -1       399 1.20234E+02-1.61300E-01-1.49204E+00 2.57760E+00-1.07079E+00-2.37001E+00
 -1       400 9.76161E+01 1.00801E+00 1.44820E+00 2.07392E+00 1.86664E-01-3.24760E+00
 -1       401 7.70767E+01 4.34056E-01-1.57227E+00 1.37645E+00-9.06806E-01-7.35276E-01
 -1       402 5.28857E+01-8.90555E-01 9.49878E-01 1.02104E+00 7.16230E-01-1.09858E+00
 -1       403 7.21473E-01 1.33422E-01 9.82203E-01 1.01240E-01 4.70691E-01-1.39030E+01
 -1       404-1.49056E+00-7.50311E-02 4.28096E-01-1.20611E-02 5.67660E-03-1.55979E+01
 -1       405-1.43375E+01 3.03463E-02-3.39197E-01 4.68829E-01-4.90694E-01-9.53912E+00
 -1       406-1.50782E+01 2.18716E-02-2.89155E-01-1.94059E-01 5.91821E-01-9.38886E+00
 -1       407-1.86321E+01 2.35268E-02-1.87959E-01 1.29860E-01 1.20002E-01-8.15003E+00
 -1       408 2.54854E+01-1.23462E-01-7.50074E-01-5.18738E-01-6.05060E-01-9.22226E+00
 -1       409 2.67786E+01-5.53988E-01-1.85944E-01-1.34383E-01 4.07257E-03-8.62751E+00
 -1       410 1.16606E+01-6.78443E-01 1.13819E-02 3.54405E-01 4.37515E-01-9.55920E+00
 -1       411 1.19423E+01-2.75180E-01 3.74652E-01-4.02392E-01-1.98934E-01-9.52771E+00
 -1       412-1.91170E+02-1.99558E+00-1.01091E+00-1.91259E-01-1.93931E+00-1.01251E+01
 -1       413-2.12273E+02 3.81958E+00 7.79055E+00-1.02862E+00-8.34401E+00-1.26718E+01
 -1       414-2.12136E+02 3.85849E+00 7.80938E+00 1.01934E+00 8.38112E+00-1.27495E+01
 -1       415-1.65006E-01-4.51894E-02-6.21480E-02 4.76029E-02 5.07693E-02-1.76235E+01
 -1       416-1.90528E+02-1.81364E+00-8.80004E-01-2.82486E-01 1.92279E+00-1.01404E+01
 -1       417 2.12224E+02-3.91191E+00-7.79843E+00 1.04220E+00-8.36567E+00-1.27024E+01
 -1       418 1.91376E+02 2.35602E+00 1.47911E+00-1.63875E-01-2.00784E+00-9.45480E+00
 -1       419 2.12035E+02-3.93154E+00-7.78019E+00-9.50006E-01 8.41800E+00-1.27721E+01
 -1       420 1.90743E+02 2.03015E+00 1.30822E+00 3.78693E-01 2.06726E+00-9.53873E+00
 -1       421-1.48941E+00-2.27408E-01 1.97315E-01 1.77899E-03 3.63745E-01-1.53670E+01
 -1       422-2.00073E+01 4.17820E-01-9.74464E-01-2.36211E-01-3.71796E-01-9.41937E+00
 -1       423 2.94981E+01-9.38044E-01 4.63142E-02-5.22958E-01 3.90975E-01-9.20881E+00
 -1       424-2.69277E+00-3.62544E-01-7.05509E-03-4.61789E-01-1.79128E-01-9.78184E+00
 -1       425-5.49243E-01-2.76554E-01 2.27626E-01-3.87041E-01-5.57661E-01-1.31342E+01
 -1       426-3.86395E+01-1.03093E+00 1.46391E-01-2.55424E-01-4.86213E-01-9.08096E+00
 -1       427-3.28508E+01 6.20160E-02-5.82529E-01 7.09912E-01 1.79932E-01-9.33346E+00
 -1       428-4.57554E+01 2.64592E+00 1.65362E+00 6.61183E-01-3.39806E-01-9.90567E+00
 -1       429-5.74191E+01-6.36349E-01-1.16653E-01-2.33396E-01 7.19640E-02-1.06472E+01
 -1       430 6.87818E+01 1.02060E-01 1.97305E-01 4.52093E-02 9.62549E-01-1.01177E+01
 -1       431 5.97673E+00-2.01955E+00-2.11215E+00-3.68616E-01-2.92930E-01-9.43902E+00
 -1       432-3.25456E+00-4.18701E-01-2.65203E-01 3.63161E-01 3.32784E-01-1.00073E+01
 -1       433 5.30650E+01 1.41859E-01-3.23981E-01 3.82506E-01-3.06219E-01-1.07434E+01
 -1       434-6.15835E+01-9.49182E-01 1.93529E-01-1.56721E-01-1.16799E+00-9.96477E+00
 -1       435 7.02989E+01-1.02581E+00-2.55639E-01 6.09735E-02-2.72929E-01-1.06846E+01
 -1       436 3.24223E+01-1.05258E-01-1.89101E-01 8.17490E-01-2.74377E-01-9.92232E+00
 -1       437 3.86271E+01 1.37620E+00 5.40036E-01-2.24399E-01-5.10931E-01-8.42504E+00
 -1       438-3.54429E+01-5.59811E-01-1.57480E-01-6.02064E-01 6.59925E-02-9.76238E+00
 -1       439-7.74575E+01 1.92034E-01-1.23807E-01 8.67972E-02-3.56842E-02-1.10589E+01
 -1       440-5.51516E+00-6.72871E-01-3.21821E-01-5.91396E-01-6.07814E-02-1.00171E+01
 -1       441 4.61341E+01-2.17993E+00-8.49600E-01-5.95341E-01-4.56221E-01-1.08453E+01
 -1       442-1.75136E+02 1.63445E+00 1.43903E+00-8.40785E-01-5.94949E-02-1.00973E+01
 -1       443 1.76643E+02 1.40711E-01-1.65555E+00 1.24562E+00-7.31982E-01-1.08094E+01
 -1       444 1.82891E+02-1.05220E-01-1.94831E-02 3.93160E-01 4.23838E-01-1.09184E+01
 -1       445-1.83363E+02-2.13114E-01 3.72429E-01-2.81063E-01-1.41791E-02-1.11036E+01
 -1       446-1.64354E+02-1.39155E-01-9.26203E-01 2.90122E-01-2.98884E-01-1.12437E+01
 -1       447 5.49237E+00-1.65520E+00-3.23826E+00-2.33404E-01-4.14268E-01-8.73140E+00
 -1       448 1.76072E+02-1.10803E-01-3.63688E-01-7.93379E-01 8.01609E-01-1.04158E+01
 -1       449 1.80276E+02-1.05234E-01-3.89220E-01-4.81641E-01-1.23195E-01-1.11364E+01
 -1       450-1.69457E+02-6.36375E-01-6.03846E-02 7.68605E-01-1.10791E+00-1.01147E+01
 -1       451-5.39979E+01 2.29921E-01 4.64202E-02 1.99342E-01 3.54290E-01-1.07142E+01
 -1       452 5.09964E+01-1.35922E+00-4.34664E-01-4.69742E-01 4.63912E-01-1.07645E+01
 -1       453 6.84523E+01-1.35262E-01-1.04413E+00 5.17680E-01-6.68969E-01-1.10599E+01
 -1       454 8.40883E-01 8.39233E-01 4.85136E-01 2.09639E-01 3.01094E-02-9.90475E+00
 -1       455 1.59586E+02-5.31617E-01-2.60527E-01-3.59659E-01-2.04959E-01-1.08317E+01
 -1       456 8.97361E+01-4.75914E-01-1.22872E+00-4.92259E-01 6.36342E-01-1.02114E+01
 -1       457-1.05397E+00-1.11193E+00-5.29847E-01-2.93168E-01 2.56657E-02-9.80551E+00
 -1       458-8.86793E+01 1.82371E+00 9.16342E-01 5.84368E-01 1.83254E-01-1.03720E+01
 -1       459 5.45268E+00-9.10215E-01-2.61032E+00-4.50557E-01 9.72790E-02-9.50989E+00
 -1       460 7.21116E+01-1.18210E+00-1.59233E-02-8.51243E-02 6.02048E-01-1.05101E+01
 -1       461-7.56482E+01 2.99302E-01 1.90824E-01 2.50798E-01 3.09108E-01-1.11356E+01
 -1       462 8.91273E+01-5.83444E-01-1.47312E+00 6.50194E-01-5.09833E-01-1.05214E+01
 -1       463-6.68174E+01 2.28905E+00 1.04572E+00-2.71875E-03-7.69419E-02-9.96999E+00
 -1       464 9.93407E+01-7.79406E-02 8.42707E-01-2.51138E-01-4.61225E-01-1.11440E+01
 -1       465-9.49217E+01 4.67042E-01 1.45514E-01 2.09692E-01-1.45729E-01-1.08191E+01
 -1       466-8.80057E+01 1.76089E+00 9.05513E-01-2.99064E-01-1.13250E-01-1.06868E+01
 -1       467 9.69767E+01-1.03733E-01 4.29226E-01 4.43034E-01 5.90817E-01-1.08265E+01
 -1       468-9.42572E+01 9.94886E-01 3.80149E-01-1.71237E-01 2.61023E-01-1.07965E+01
 -1       469-5.38101E+00 2.03531E+00 3.36287E+00 1.54141E-01-4.45457E-01-8.37350E+00
 -1       470-1.12092E+02 4.79549E-02 1.38842E+00-1.35445E+00-7.98725E-01-1.05482E+01
 -1       471-1.85435E+02-2.00195E-01-2.66174E-02 8.19583E-01 1.86584E-01-1.10808E+01
 -1       472-1.54451E+02 2.98655E-01 1.58231E+00-4.27163E-01-6.78414E-01-1.02233E+01
 -1       473 1.40399E+02-2.69907E-01-1.39847E-02-2.73019E-01 1.41051E-01-1.08625E+01
 -1       474-5.88330E+00 1.23001E+00 2.76748E+00-2.10845E-01 4.08502E-02-9.03493E+00
 -1       475 1.53292E+02-1.97728E+00-8.24033E-01 3.83830E-01-3.06657E-01-1.02008E+01
 -1       476-1.10886E+02 5.45660E-01 3.55931E-01 6.96556E-01 9.98614E-01-1.02124E+01
 -1       477 1.04241E+02 4.32967E-01 1.96444E-01-9.46573E-01-1.21515E+00-9.87092E+00
 -1       478-1.18734E+02 1.52288E-01-8.19512E-02 2.88852E-01-1.65524E-02-1.10235E+01
 -1       479 1.18586E+02-1.49658E-01-2.66498E-02-8.81876E-01-2.25366E-02-1.10897E+01
 -1       480 7.78659E-02-2.99874E-02-4.49927E-02 9.62895E-01-2.10919E-02-9.78698E+00
 -1       481-1.61916E+02-4.86409E-02-4.24403E-01-3.30621E-01 5.28522E-01-1.07894E+01
 -1       482-1.40220E+02 1.76934E-01 2.54898E-02 2.92765E-01-5.92092E-03-1.08528E+01
 -1       483-3.81862E-01-1.32553E-01 4.07776E-03-3.06058E-01-2.69464E-02-1.06233E+01
 -1       484-1.25427E+02 2.27825E-01-1.58441E+00-1.10781E+00 9.51933E-01-1.01423E+01
 -1       485 5.68458E+00-2.53834E+00-2.93256E+00 1.78496E-01 4.56689E-01-8.63560E+00
 -1       486 1.59213E+02-1.00007E+00-3.61758E-01 1.31241E-01 2.36575E-01-1.07161E+01
 -1       487 1.53346E+02-1.68196E+00-6.88116E-01-2.85416E-01 1.43674E-01-1.05005E+01
 -1       488-1.54712E+02 4.05110E-01 1.52105E+00 1.10264E+00 6.67525E-01-1.02848E+01
 -1       489 1.33041E+02-6.83912E-01 5.93730E-02-1.98732E-01 1.03549E+00-1.02384E+01
 -1       490-1.26246E+02-1.89146E-01-5.04703E-01 4.28877E-01-1.11194E+00-9.71305E+00
 -1       491-1.40110E+02 5.27546E-01 5.69540E-02-2.42872E-01 4.96353E-02-1.09199E+01
 -1       492 1.38292E+02-2.66404E-01-3.63109E-01 2.13137E-01-2.33482E-01-1.10909E+01
 -1       493-1.18559E+02 8.85182E-02 1.83062E-02-1.67673E-01 3.54444E-02-1.08019E+01
 -1       494 1.18706E+02-4.32378E-02-6.00857E-02 6.64981E-04 1.14600E-02-1.11772E+01
 -1       495 1.26400E+02 1.87589E+00 8.20450E-01 1.00587E+00 1.53294E-01-1.00264E+01
 -1       496 1.10504E+02-1.69373E+00-8.42872E-01 8.82837E-01-1.63129E-02-1.04125E+01
 -1       497-9.48919E-02-4.74338E-02 4.20564E-01-1.07345E-01 1.50042E-01-1.47003E+01
 -1       498 7.79652E-02 3.36922E-01 2.77151E-01 1.90754E-01-1.77965E-01-1.47900E+01
 -1       499-8.92017E+00 1.42305E+00 1.21194E-01-1.32975E-01 4.94771E-02-7.25306E+00
 -1       500 9.27482E+00-1.16076E+00 5.75278E-01-3.19659E-03 1.10140E-02-8.05600E+00
 -1       501-2.02914E+02-7.75747E-01 1.22955E+01-2.13117E-02 5.53710E-03-6.20598E+00
 -1       502-1.42290E-04 8.53757E-03 1.90192E-02-8.62707E-03-5.19533E+00-1.46251E+01
 -1       503 5.70864E-03 1.97393E-02 3.23000E-02-2.60093E-03 5.23821E+00-1.46889E+01
 -1       504 2.02955E+02 7.36357E-01-1.23088E+01 3.34018E-02 4.83051E-03-6.20426E+00
 -1       505 1.12075E+01-8.70935E-01-7.50380E-01 4.03409E-01 5.12716E-01-5.63633E+00
 -1       506 1.02451E+00 4.33753E-01-1.50586E+00-3.08305E-01-9.71075E-02-1.38332E+01
 -1       507 1.25457E+00 5.74944E-01-1.48019E+00 4.23202E-01 2.32404E-01-1.36624E+01
 -1       508 1.12071E+01-9.21872E-01-7.83187E-01-4.42148E-01-4.66567E-01-5.59319E+00
 -1       509-1.06114E+01 1.17900E+00 1.32666E+00 6.04705E-02-5.39746E-01-4.88128E+00
 -1       510-1.18580E+00-1.29605E-01 1.93579E+00-3.54474E-02 1.18735E-01-1.40373E+01
 -1       511-1.08712E+00-4.59847E-01 2.06957E+00 2.28846E-01-7.65601E-02-1.38546E+01
 -1       512-1.02600E+01 1.33432E+00 1.20287E+00-1.07184E-01 7.33141E-01-4.96784E+00
 -1       513-3.04651E+02-3.29505E+01-1.06273E+00-1.03580E+01-6.72627E+00-7.78071E+00
 -1       514-9.30132E+01-1.72439E+01-1.03024E+01-7.69367E+00 5.02747E+00-8.27406E+00
 -1       515-3.04696E+02-3.29505E+01-1.06929E+00 1.03161E+01 6.73039E+00-7.77963E+00
 -1       516-9.30573E+01-1.72479E+01-1.02893E+01 7.68426E+00-5.00101E+00-8.21164E+00
 -1       517 3.04667E+02 3.29024E+01 1.04810E+00 1.03821E+01-6.73747E+00-7.77917E+00
 -1       518 9.30141E+01 1.72844E+01 1.03555E+01 7.70054E+00 5.05342E+00-8.25442E+00
 -1       519 9.30446E+01 1.72542E+01 1.03102E+01-7.70790E+00-5.01544E+00-8.18955E+00
 -1       520 3.04736E+02 3.29191E+01 1.07235E+00-1.03193E+01 6.74443E+00-7.78743E+00
 -3
    1PSTEP                         3           1           1          
  100CL  101 1.000000000         520                     0    1           1
 -4  TOSTRAIN    6    1
 -5  EXX         1    4    1    1
 -5  EYY         1    4    2    2
 -5  EZZ         1    4    3    3
 -5  EXY         1    4    1    2
 -5  EYZ         1    4    2    3
 -5  EZX         1    4    3    1
 -1         1 1.78534E-03-1.11636E-04-2.59206E-04 3.38919E-04-1.13730E-04-6.75804E-05
 -1         2-1.78542E-03 1.11593E-04 2.59149E-04-3.38841E-04-1.13706E-04-6.76787E-05
 -1         3 1.78580E-03-1.11609E-04-2.59287E-04-3.38881E-04 1.13720E-04-6.76474E-05
 -1         4-1.78591E-03 1.11601E-04 2.59225E-04 3.38842E-04 1.13715E-04-6.76703E-05
 -1         5 2.55731E-05-3.55842E-06-1.85744E-05-6.24106E-06-1.23872E-06-1.60131E-05
 -1         6-2.67770E-05 3.91033E-06 1.95617E-05 7.20301E-06-4.54037E-07-1.50392E-05
 -1         7 2.60379E-05-3.54351E-06-1.82326E-05 5.95082E-06 4.75240E-07-1.61571E-05
 -1         8-2.78694E-05 4.16606E-06 1.95673E-05-7.54054E-06-4.95007E-07-1.51969E-05
 -1         9-6.62106E-08 2.67219E-14-4.54167E-13 3.85540E-08-1.77734E-10 2.57345E-04
 -1        10-8.93669E-04-6.98448E-10-4.47915E-10-2.04328E-04-2.81588E-10 2.15800E-04
 -1        11 8.93669E-04 6.98416E-10 4.46980E-10 2.04485E-04-2.81992E-10 2.15887E-04
 -1        12 1.58243E-03 1.51892E-09 2.99294E-09 1.06174E-07-1.71986E-13-4.34903E-04
 -1        13 1.62959E-03 1.57946E-09 3.24251E-09 1.46602E-04 2.55629E-10-3.76175E-04
 -1        14 1.62991E-03 1.58007E-09 3.24275E-09-1.46446E-04-2.55822E-10-3.76179E-04
 -1        15-4.29182E-08-3.67174E-14-2.83204E-13-4.03049E-08 1.77117E-10 2.57500E-04
 -1        16-8.93927E-04-6.98688E-10-4.48145E-10 2.04291E-04 2.81056E-10 2.15933E-04
 -1        17 8.93939E-04 6.98515E-10 4.47686E-10-2.04438E-04 2.81521E-10 2.15976E-04
 -1        18-1.58248E-03-1.51804E-09-2.99329E-09-8.30874E-08-5.92283E-14-4.34893E-04
 -1        19-1.62988E-03-1.57857E-09-3.24291E-09-1.46496E-04 2.55666E-10-3.76205E-04
 -1        20-1.63023E-03-1.57900E-09-3.24332E-09 1.46370E-04-2.55641E-10-3.76194E-04
 -1        21-9.88606E-08-2.28500E-07-3.75098E-07-8.15649E-07-1.12536E-05-8.86053E-05
 -1        22-2.06168E-05-2.98142E-06 2.97841E-05 1.48795E-06-5.80138E-06-5.41697E-05
 -1        23 1.98893E-05 2.90443E-06-2.99556E-05-2.32702E-06-5.55938E-06-5.41835E-05
 -1        24 3.08025E-05-9.55623E-06-3.03846E-05 1.94412E-08 5.95565E-08-2.42169E-05
 -1        25 2.68923E-05-5.95919E-06-2.29055E-05-3.01263E-06 2.72240E-06-1.77484E-05
 -1        26 2.72099E-05-6.17748E-06-2.30243E-05 3.02175E-06-2.90906E-06-1.76948E-05
 -1        27-2.02806E-08-3.01763E-07 3.52838E-07 3.03671E-07 1.11418E-05-8.81431E-05
 -1        28-2.09612E-05-2.76666E-06 3.00579E-05-1.84241E-06 5.41107E-06-5.37658E-05
 -1        29 2.05049E-05 2.55291E-06-2.95759E-05 1.81332E-06 5.20045E-06-5.39651E-05
 -1        30-3.01589E-05 7.40275E-06 3.01571E-05-1.19292E-07 1.89409E-08-2.55349E-05
 -1        31-2.79363E-05 5.05252E-06 2.32543E-05 2.51235E-06 2.15599E-06-1.89455E-05
 -1        32-2.89415E-05 4.88268E-06 2.37199E-05-2.69837E-06-2.50688E-06-1.91563E-05
 -1        33-1.81087E-03 5.60359E-04 5.47101E-04 3.74643E-05 1.39255E-05 4.26458E-06
 -1        34-1.65283E-03 4.97385E-04 4.98483E-04 8.94146E-06 8.92986E-07-1.38791E-05
 -1        35-1.44265E-03 4.35484E-04 4.33431E-04 8.48696E-06-2.58738E-06-1.32938E-05
 -1        36-1.22740E-03 3.66215E-04 3.67150E-04 6.55325E-06 2.68327E-06-1.37734E-05
 -1        37-1.03227E-03 3.10855E-04 3.10827E-04 7.74361E-06-2.90956E-06-1.49515E-05
 -1        38-8.26715E-04 2.48266E-04 2.49714E-04 6.37614E-06 3.72629E-07-1.53452E-05
 -1        39-6.24370E-04 1.89237E-04 1.88796E-04 8.55497E-06 7.33386E-07-1.41778E-05
 -1        40-4.18545E-04 1.27845E-04 1.27869E-04 8.74421E-06-1.29129E-06-1.58501E-05
 -1        41-2.05016E-04 6.10162E-05 5.97960E-05 6.24890E-06 2.53704E-06-1.25554E-05
 -1        42-1.87078E-03 4.93352E-04 5.70982E-04-9.72890E-05-3.70128E-05 1.16215E-05
 -1        43-1.74053E-03 5.21962E-04 5.23030E-04 9.43240E-06 2.00931E-06-1.71688E-05
 -1        44-1.54452E-03 4.68269E-04 4.66741E-04 1.04485E-05-7.21799E-08-2.09032E-05
 -1        45-1.33569E-03 4.00348E-04 4.00435E-04 7.38320E-06-1.44181E-07-1.85076E-05
 -1        46-1.13076E-03 3.38749E-04 3.39504E-04 8.91336E-06 3.22694E-08-1.98487E-05
 -1        47-9.26602E-04 2.80225E-04 2.77655E-04 1.00086E-05-2.19743E-06-1.88181E-05
 -1        48-7.19482E-04 2.18024E-04 2.21179E-04 1.04231E-05 1.20165E-06-2.06781E-05
 -1        49-5.17759E-04 1.58642E-04 1.60935E-04 9.08929E-06 7.59448E-07-2.13536E-05
 -1        50-3.09870E-04 9.45357E-05 9.76265E-05 7.44156E-06 3.36446E-06-2.02644E-05
 -1        51-1.06934E-04 3.21928E-05 3.44445E-05 5.36932E-06 2.78527E-06-1.69947E-05
 -1        52 1.81120E-03-5.60328E-04-5.47093E-04-3.86357E-05 1.30685E-05 4.87185E-06
 -1        53 1.64789E-03-4.95939E-04-4.96429E-04-8.43019E-06-2.24644E-06-1.40356E-05
 -1        54 1.44768E-03-4.34649E-04-4.35554E-04-8.15399E-06-8.38661E-07-1.32546E-05
 -1        55 1.22181E-03-3.65288E-04-3.65251E-04-6.98767E-06 3.92110E-07-1.36375E-05
 -1        56 1.03741E-03-3.12356E-04-3.12933E-04-7.32097E-06-9.42345E-07-1.55581E-05
 -1        57 8.22290E-04-2.48806E-04-2.47398E-04-1.04171E-05-3.80224E-06-1.43772E-05
 -1        58 6.20535E-04-1.87714E-04-1.86333E-04-7.21911E-06-3.25859E-06-1.52650E-05
 -1        59 4.19213E-04-1.25992E-04-1.27127E-04-8.35040E-06-1.49773E-06-1.61697E-05
 -1        60 2.08252E-04-6.38258E-05-6.18042E-05-7.26459E-06-2.61216E-06-1.29838E-05
 -1        61 1.87027E-03-4.92692E-04-5.70946E-04 9.72573E-05-3.74471E-05 1.16526E-05
 -1        62 1.74165E-03-5.21376E-04-5.22565E-04-9.01443E-06-6.62239E-07-1.78780E-05
 -1        63 1.54366E-03-4.65208E-04-4.62773E-04-1.02737E-05-2.68848E-06-1.86747E-05
 -1        64 1.33559E-03-3.98961E-04-4.00117E-04-8.70729E-06-1.40307E-06-2.03849E-05
 -1        65 1.13090E-03-3.39051E-04-3.39401E-04-1.01176E-05 1.04842E-07-1.86475E-05
 -1        66 9.26572E-04-2.81803E-04-2.81876E-04-1.06206E-05-4.28642E-07-2.07664E-05
 -1        67 7.20432E-04-2.17801E-04-2.14473E-04-1.02674E-05-5.15700E-06-1.98739E-05
 -1        68 5.16859E-04-1.55901E-04-1.55086E-04-8.76727E-06-4.07442E-06-1.96420E-05
 -1        69 3.10328E-04-9.43535E-05-9.48236E-05-1.00579E-05-2.25541E-06-2.00553E-05
 -1        70 1.07644E-04-3.15846E-05-3.37785E-05-6.42464E-06-1.80586E-06-1.65639E-05
 -1        71-1.81363E-03 5.61090E-04 5.48313E-04-3.90876E-05-1.35589E-05 3.61159E-06
 -1        72-1.64179E-03 4.91753E-04 4.93185E-04-9.57032E-06-3.85802E-06-1.30136E-05
 -1        73-1.44483E-03 4.35551E-04 4.34864E-04-6.99010E-06 2.07307E-06-1.31848E-05
 -1        74-1.23312E-03 3.68319E-04 3.69399E-04-7.65191E-06-2.13510E-06-1.27277E-05
 -1        75-1.02739E-03 3.08881E-04 3.08909E-04-8.78051E-06 2.06271E-06-1.37810E-05
 -1        76-8.30040E-04 2.49996E-04 2.50503E-04-6.73066E-06 6.41745E-07-1.55987E-05
 -1        77-6.15974E-04 1.83760E-04 1.84578E-04-9.76150E-06-3.29357E-06-1.26166E-05
 -1        78-4.05986E-04 1.20450E-04 1.20383E-04-7.40137E-06-3.01226E-06-1.48574E-05
 -1        79-2.09923E-04 6.34077E-05 6.13465E-05-6.60715E-06-9.28765E-07-1.38791E-05
 -1        80-1.87185E-03 4.93401E-04 5.71613E-04 9.70227E-05 3.70150E-05 1.12537E-05
 -1        81-1.73892E-03 5.18482E-04 5.22508E-04-1.08279E-05-3.45055E-06-1.71441E-05
 -1        82-1.54398E-03 4.65794E-04 4.65374E-04-1.03577E-05-1.68125E-06-1.85923E-05
 -1        83-1.33714E-03 4.01749E-04 4.01302E-04-7.77546E-06-4.74756E-07-1.86907E-05
 -1        84-1.13096E-03 3.38816E-04 3.39664E-04-1.12504E-05-1.14777E-07-1.74160E-05
 -1        85-9.27098E-04 2.79020E-04 2.77839E-04-1.04234E-05 3.26230E-06-1.96351E-05
 -1        86-7.19004E-04 2.15096E-04 2.20110E-04-9.57774E-06-2.97696E-06-1.94117E-05
 -1        87-5.15771E-04 1.52699E-04 1.54351E-04-9.88263E-06-3.43827E-06-1.93932E-05
 -1        88-3.10308E-04 9.30358E-05 9.24768E-05-8.34965E-06-4.07373E-06-2.01474E-05
 -1        89-1.08730E-04 3.27682E-05 3.48148E-05-6.67443E-06-1.59563E-06-1.60497E-05
 -1        90 1.81268E-03-5.60438E-04-5.47391E-04 3.91070E-05-1.27042E-05 5.92400E-06
 -1        91 1.64337E-03-4.93716E-04-4.94457E-04 9.03101E-06 2.20643E-06-1.38281E-05
 -1        92 1.44594E-03-4.34205E-04-4.34614E-04 7.94027E-06 1.10149E-06-1.46208E-05
 -1        93 1.23581E-03-3.72415E-04-3.71293E-04 9.46284E-06 2.96537E-06-1.38873E-05
 -1        94 1.02423E-03-3.06069E-04-3.06956E-04 8.00386E-06-2.43076E-06-1.42075E-05
 -1        95 8.26723E-04-2.49601E-04-2.48995E-04 9.33884E-06 3.80149E-06-1.27505E-05
 -1        96 6.19861E-04-1.86991E-04-1.85497E-04 7.69525E-06 3.35917E-06-1.34596E-05
 -1        97 4.04254E-04-1.18774E-04-1.18740E-04 5.66442E-06-1.48214E-06-1.43157E-05
 -1        98 2.12245E-04-6.56202E-05-6.30210E-05 5.67969E-06 4.10897E-06-1.26872E-05
 -1        99 1.87114E-03-4.93192E-04-5.71065E-04-9.74514E-05 3.72522E-05 1.15235E-05
 -1       100 1.74035E-03-5.18697E-04-5.20374E-04 1.00102E-05 1.89733E-06-1.68354E-05
 -1       101 1.54285E-03-4.63545E-04-4.62257E-04 1.09344E-05 3.43797E-06-1.94589E-05
 -1       102 1.33795E-03-4.02051E-04-4.02801E-04 1.06336E-05 2.37350E-06-2.01285E-05
 -1       103 1.13062E-03-3.38891E-04-3.39352E-04 1.09887E-05 1.60391E-07-1.77927E-05
 -1       104 9.25587E-04-2.79327E-04-2.80207E-04 1.02390E-05-8.91337E-07-1.88335E-05
 -1       105 7.21209E-04-2.16155E-04-2.13214E-04 1.01308E-05 5.98614E-06-1.87200E-05
 -1       106 5.15100E-04-1.51522E-04-1.49623E-04 7.25318E-06 4.06341E-06-1.90009E-05
 -1       107 3.10003E-04-9.19119E-05-9.08806E-05 7.94637E-06 2.57033E-06-1.95221E-05
 -1       108 1.09640E-04-3.27033E-05-3.29418E-05 5.66037E-06 1.22450E-06-1.58204E-05
 -1       109 8.00233E-08-1.78709E-08-1.43167E-08-1.75735E-08 1.60835E-08 8.14604E-06
 -1       110 7.25183E-04-1.44647E-06-4.56738E-05 1.28316E-04-2.35618E-05-1.50240E-05
 -1       111-7.25352E-04 1.44055E-06 4.56512E-05 1.28139E-04 2.35476E-05-1.49687E-05
 -1       112 7.25452E-04-1.46632E-06-4.56842E-05-1.28246E-04 2.35769E-05-1.49738E-05
 -1       113-7.25097E-04 1.41306E-06 4.56447E-05-1.28235E-04-2.35305E-05-1.50335E-05
 -1       114 3.90545E-04 3.49243E-10 5.88097E-10 6.98720E-05-1.77964E-10 1.60548E-04
 -1       115 1.22863E-03-1.97290E-05-1.03547E-04 2.35127E-04-6.16399E-05-4.78057E-05
 -1       116 1.12582E-03 1.51870E-09 2.99288E-09 6.77000E-05 4.10825E-10-2.55166E-04
 -1       117-3.90483E-04-3.49189E-10-5.89005E-10-6.97534E-05-1.77503E-10 1.60507E-04
 -1       118-1.22869E-03 1.97043E-05 1.03515E-04-2.35007E-04-6.16119E-05-4.78441E-05
 -1       119-1.12588E-03-1.51787E-09-2.99319E-09-6.76594E-05 4.10880E-10-2.55158E-04
 -1       120 1.12600E-03 1.51913E-09 2.99299E-09-6.75357E-05-4.11169E-10-2.55157E-04
 -1       121 1.22906E-03-1.97396E-05-1.03557E-04-2.35048E-04 6.16503E-05-4.77711E-05
 -1       122 3.90643E-04 3.49264E-10 5.88589E-10-6.98449E-05 1.77347E-10 1.60650E-04
 -1       123-3.90583E-04-3.49337E-10-5.89155E-10 6.97230E-05 1.76886E-10 1.60619E-04
 -1       124-1.22913E-03 1.97206E-05 1.03533E-04 2.34926E-04 6.16289E-05-4.77714E-05
 -1       125-1.12603E-03-1.51821E-09-2.99339E-09 6.75049E-05-4.10998E-10-2.55133E-04
 -1       126 3.15226E-04-7.21745E-07-1.15886E-05 5.63864E-05-6.15647E-06 4.55189E-06
 -1       127 5.48309E-08 6.94286E-14-4.40828E-13 3.21146E-08-7.36772E-11 1.31386E-04
 -1       128-3.15104E-04 6.88197E-07 1.15657E-05-5.63617E-05-6.12824E-06 4.57578E-06
 -1       129 6.96395E-04 1.45807E-09 2.74324E-09 6.94598E-08-2.47297E-13-1.80465E-04
 -1       130 3.15349E-04-7.44414E-07-1.15934E-05-5.63397E-05 6.17021E-06 4.57817E-06
 -1       131-3.15243E-04 7.27527E-07 1.15685E-05 5.62670E-05 6.14935E-06 4.60580E-06
 -1       132 4.44331E-08 1.31979E-14-3.36586E-13-3.90809E-08 7.29445E-11 1.31462E-04
 -1       133-6.96437E-04-1.45730E-09-2.74346E-09-8.35656E-08-1.30835E-13-1.80434E-04
 -1       134-8.58807E-07-2.74079E-07 9.00968E-07-2.18785E-07-5.81664E-07-8.46292E-05
 -1       135 5.12239E-06 3.83470E-06-3.25326E-05-3.11737E-07-2.97301E-06-6.19674E-05
 -1       136-5.27002E-06-4.95002E-06 3.25852E-05-3.94065E-08 3.73474E-06-6.21571E-05
 -1       137 4.90124E-06 3.89794E-06-3.20010E-05 2.35605E-07 2.73095E-06-6.22375E-05
 -1       138-6.70406E-06-4.01214E-06 3.32965E-05-3.88768E-07-4.25945E-06-6.26387E-05
 -1       139 8.28268E-06 3.08815E-06-2.97363E-05 8.99766E-07-1.05133E-05-7.09125E-05
 -1       140 1.67027E-05 8.00497E-07-2.96755E-05-3.76093E-06-8.25162E-07-3.83996E-05
 -1       141 1.34838E-05-2.15970E-06-3.27457E-05 1.37516E-07 8.86858E-07-4.82423E-05
 -1       142-1.83535E-05-8.26106E-07 2.99594E-05 3.61278E-06-1.65916E-06-3.87109E-05
 -1       143-9.23260E-06-3.35637E-06 2.96302E-05-1.72537E-06-1.10514E-05-7.16029E-05
 -1       144-1.43664E-05 9.50924E-07 3.33026E-05-1.28361E-06-6.13498E-09-4.91166E-05
 -1       145 1.33411E-05-2.15459E-06-3.25421E-05-1.07973E-07-8.77098E-07-4.83523E-05
 -1       146 1.69371E-05 7.34798E-07-2.94219E-05 3.53205E-06 3.10207E-07-3.85353E-05
 -1       147 8.32530E-06 2.95244E-06-2.89433E-05-1.15526E-06 1.03296E-05-7.07998E-05
 -1       148-8.37567E-06-3.80442E-06 2.97095E-05 1.41679E-06 1.08502E-05-7.09089E-05
 -1       149-1.83649E-05-1.28832E-06 2.96453E-05-3.93151E-06 1.02300E-06-3.85473E-05
 -1       150-1.35776E-05 5.03670E-07 3.30453E-05 7.03310E-07-1.72161E-07-4.90319E-05
 -1       151 6.43347E-08-1.77698E-07-3.73531E-08-3.91333E-07-1.35348E-05-8.13021E-05
 -1       152-5.48519E-06 2.52360E-06-1.73239E-05 3.63911E-07-4.95531E-06-7.40205E-05
 -1       153 3.84816E-06-2.81370E-06 1.85183E-05-7.89954E-07-5.83557E-06-7.47345E-05
 -1       154-1.90253E-06-1.36713E-06-2.03679E-05 4.33691E-08-1.07112E-08-6.27452E-05
 -1       155-5.71696E-06 2.57156E-06-1.68619E-05-4.05440E-07 4.57586E-06-7.40179E-05
 -1       156-1.76793E-07-2.77546E-07 7.70212E-07 9.50539E-08 1.30461E-05-8.06999E-05
 -1       157 4.29621E-06-3.39008E-06 1.83241E-05 1.45020E-07 4.77787E-06-7.43160E-05
 -1       158 1.57734E-07 8.02931E-08 2.15865E-05-5.29547E-07-3.39027E-07-6.36139E-05
 -1       159 3.13577E-06-3.18026E-07-3.18063E-06 3.59716E-08 2.09652E-06-1.01090E-04
 -1       160-3.64406E-06-3.64815E-07 1.86041E-06-8.76254E-07 1.34906E-06-9.62394E-05
 -1       161 3.12171E-07 9.85107E-08-2.30235E-07 2.60974E-06-2.39342E-08-1.12671E-04
 -1       162 1.26426E-06 7.60678E-07-2.07134E-06 1.03199E-08 2.20160E-06-1.03659E-04
 -1       163 3.86131E-06 1.64133E-07-3.42539E-06 7.26982E-07 1.67386E-06-1.03681E-04
 -1       164-4.47967E-06 3.12386E-07 3.16375E-06-5.51225E-07 2.02579E-06-1.04836E-04
 -1       165-5.34317E-07-3.09983E-07-2.14524E-08-1.40990E-06 4.91979E-06-1.06956E-04
 -1       166-1.36305E-09-1.48661E-07-1.69291E-07-9.53392E-07 2.81731E-07-9.75866E-05
 -1       167-4.97997E-06 3.00464E-06 5.27323E-07 2.25151E-06 1.45949E-06-1.10578E-04
 -1       168-5.17075E-07 2.11557E-07 1.46479E-07 1.48401E-07 6.28884E-05-1.01394E-04
 -1       169-1.59812E-07-4.88022E-09 8.29447E-08-3.03214E-08 3.24595E-05 3.97032E-05
 -1       170 9.33379E-04-1.76991E-04-2.12852E-04 1.32464E-04-1.37297E-05-2.10442E-05
 -1       171 9.15768E-04-3.03095E-04-2.78134E-04-4.12687E-05 3.00989E-05-3.27081E-05
 -1       172-9.33547E-04 1.76945E-04 2.13004E-04-1.32296E-04-1.40555E-05-2.11961E-05
 -1       173-9.16742E-04 3.03283E-04 2.78314E-04 4.10821E-05 3.00530E-05-3.28010E-05
 -1       174 1.04680E-06-1.22942E-07 3.13733E-07 5.93777E-07 8.18446E-08-1.04104E-04
 -1       175 1.39602E-05-1.96378E-06-2.67797E-06 6.16628E-07 3.77064E-07-6.58245E-05
 -1       176 9.70960E-05-2.68925E-05-3.34750E-05 1.58352E-06 7.33740E-07-6.21116E-05
 -1       177-1.54124E-05 2.20022E-06 4.12911E-06 2.12583E-06-4.47927E-07-6.75677E-05
 -1       178-1.01157E-04 2.92288E-05 2.95701E-05 1.68365E-06 1.18502E-06-6.60286E-05
 -1       179-8.28242E-04 2.51988E-04 2.46971E-04 4.30544E-06-1.18827E-07-6.01726E-05
 -1       180-9.06230E-04 2.73202E-04 2.67094E-04-9.37545E-07 1.63168E-06-6.13303E-05
 -1       181-8.93933E-07 6.25592E-07 3.32600E-07-8.36806E-07 8.22603E-06-9.04714E-05
 -1       182-7.21263E-04 2.15767E-04 2.13779E-04 3.64742E-07-3.13319E-06-5.93569E-05
 -1       183-8.15102E-04 2.42383E-04 2.49120E-04-6.35387E-06 1.15643E-06-6.39182E-05
 -1       184 3.87955E-06 2.00558E-06-6.46962E-06-1.19812E-06 2.23842E-07-1.05111E-04
 -1       185-6.15786E-04 1.86815E-04 1.78369E-04-7.84088E-06 1.10192E-06-6.12509E-05
 -1       186-7.18816E-04 2.13585E-04 2.22064E-04-8.16007E-06-7.34081E-07-6.06428E-05
 -1       187-6.21605E-06-1.91352E-06 6.64254E-06-4.33092E-07 1.09301E-06-1.00392E-04
 -1       188-5.19873E-04 1.56835E-04 1.55928E-04 3.62057E-06-3.54765E-06-6.41185E-05
 -1       189-6.10413E-04 1.82499E-04 1.83180E-04 3.73228E-06 3.63069E-06-6.38006E-05
 -1       190 4.76018E-06 1.09199E-06-6.17105E-06 1.97913E-06 9.48496E-07-1.05972E-04
 -1       191-4.13394E-04 1.25118E-04 1.20580E-04-1.17906E-06-1.72434E-06-6.21922E-05
 -1       192-5.10343E-04 1.50974E-04 1.58563E-04-5.01634E-06-3.51412E-07-6.45843E-05
 -1       193-4.52122E-06-1.40498E-06 6.30494E-06 1.95081E-06-7.45800E-07-1.07973E-04
 -1       194-3.11648E-04 9.34159E-05 8.96929E-05-3.24058E-07-2.71774E-06-5.93738E-05
 -1       195-4.03030E-04 1.18909E-04 1.26545E-04-7.57244E-06 1.89610E-06-6.47878E-05
 -1       196 4.42172E-06 2.96592E-06-5.82212E-06 3.33252E-07 1.35479E-06-1.03281E-04
 -1       197-2.09391E-04 6.21083E-05 6.07773E-05 6.86634E-08-3.21203E-06-5.81520E-05
 -1       198-3.02315E-04 8.87111E-05 9.58739E-05-7.59139E-06 2.37591E-06-6.28195E-05
 -1       199 1.26661E-06 4.01207E-07-4.70438E-06-2.70159E-06 1.25963E-06-1.02054E-04
 -1       200-1.06664E-04 3.31442E-05 2.50686E-05-2.11494E-06 1.57097E-06-5.80829E-05
 -1       201-1.99015E-04 5.73633E-05 6.47107E-05-6.04623E-06 4.40810E-07-6.45207E-05
 -1       202-2.54844E-06-1.28359E-06 1.90176E-06-9.78443E-07 1.91896E-06-9.95108E-05
 -1       203-9.36484E-07 5.66269E-06-2.57974E-06 3.93965E-07 2.85810E-06-1.03211E-04
 -1       204 8.27162E-04-2.52068E-04-2.48517E-04-4.34504E-06-4.36338E-07-6.08724E-05
 -1       205 9.06107E-04-2.73664E-04-2.66442E-04-1.63618E-06 9.03421E-07-6.01009E-05
 -1       206 7.22450E-04-2.17589E-04-2.13297E-04 1.12844E-06-1.95248E-06-6.13103E-05
 -1       207 8.17827E-04-2.42923E-04-2.50360E-04 5.15156E-06-7.42719E-07-6.38998E-05
 -1       208 6.17751E-04-1.86488E-04-1.79250E-04 8.50874E-06-1.06397E-06-6.02306E-05
 -1       209 7.16295E-04-2.13721E-04-2.21242E-04 7.32366E-06 1.03330E-06-6.00031E-05
 -1       210 5.21385E-04-1.57449E-04-1.54076E-04-1.41892E-06-3.96123E-06-6.45594E-05
 -1       211 6.09797E-04-1.81942E-04-1.85249E-04-1.31333E-06 3.95241E-06-6.44739E-05
 -1       212 4.11683E-04-1.22725E-04-1.21121E-04-4.34047E-07-2.75175E-06-6.00330E-05
 -1       213 5.06573E-04-1.50154E-04-1.57363E-04 6.68223E-06 1.27288E-06-6.46970E-05
 -1       214 3.10254E-04-9.39050E-05-9.12750E-05 7.06847E-07-1.68486E-06-6.27616E-05
 -1       215 4.03922E-04-1.19250E-04-1.26591E-04 4.00603E-06-7.09404E-07-6.35179E-05
 -1       216 2.09836E-04-6.36118E-05-6.12375E-05 1.59107E-06-1.70503E-06-6.15440E-05
 -1       217 3.03934E-04-8.96287E-05-9.64912E-05 5.83436E-06-6.63590E-07-6.31281E-05
 -1       218 1.03724E-04-3.27866E-05-2.55746E-05 3.32607E-07-2.03014E-06-6.20599E-05
 -1       219 1.96259E-04-5.80360E-05-6.29534E-05 5.45033E-06 6.11609E-07-6.59170E-05
 -1       220-4.56895E-06 2.00795E-06 1.05044E-07-2.44143E-06-1.76567E-06-9.86535E-05
 -1       221-6.68831E-06 3.56766E-06-7.14517E-07 1.94693E-06-2.18814E-07-1.11376E-04
 -1       222-6.33036E-07 6.91616E-07 2.46111E-08-7.46648E-06-2.63858E-07-1.03872E-04
 -1       223-3.45392E-06 2.75764E-06-1.37188E-06 3.48721E-06-1.02158E-06-9.97719E-05
 -1       224-5.30968E-06 2.90440E-06-9.29978E-07-4.81450E-06-3.54517E-07-1.08565E-04
 -1       225 5.30537E-06-3.54549E-06 9.80972E-07 4.75844E-06-7.77327E-07-1.08097E-04
 -1       226-6.76069E-06 2.45123E-06 4.58523E-07 4.70543E-06-2.83524E-06-1.03825E-04
 -1       227-5.80976E-06 1.89908E-06 1.33803E-06 3.06717E-06-1.17751E-06-1.00487E-04
 -1       228-3.76729E-06 3.82778E-09 2.36596E-06-9.09961E-07 3.09502E-07-1.06687E-04
 -1       229 9.70438E-08-4.57184E-07 3.69440E-08 2.10103E-08-6.24756E-05-1.00182E-04
 -1       230 9.33925E-04-1.77031E-04-2.13194E-04-1.32397E-04 1.40057E-05-2.06247E-05
 -1       231-1.73657E-07 6.70571E-09 5.17217E-08-2.60551E-08-3.23468E-05 4.01343E-05
 -1       232 9.17353E-04-3.04205E-04-2.78578E-04 4.11486E-05-2.96318E-05-3.19811E-05
 -1       233-9.34113E-04 1.77093E-04 2.13234E-04 1.32244E-04 1.41424E-05-2.07237E-05
 -1       234-9.17741E-04 3.03146E-04 2.78945E-04-4.16186E-05-2.99498E-05-3.22389E-05
 -1       235-2.53649E-07-1.78792E-07 1.10258E-06 1.21544E-07 5.96005E-07-1.04399E-04
 -1       236 1.39549E-05-1.81426E-06-3.39119E-06-3.65112E-07 7.33434E-08-6.68122E-05
 -1       237 9.92137E-05-2.80216E-05-3.49638E-05-3.52850E-06 1.35948E-06-6.11698E-05
 -1       238-1.60126E-05 9.86908E-07 5.68271E-06-3.44270E-07 1.76848E-07-6.70882E-05
 -1       239-1.01984E-04 2.78183E-05 3.25227E-05 9.65629E-07 3.46340E-07-6.50255E-05
 -1       240-9.09539E-04 2.74597E-04 2.69148E-04 4.01698E-06 4.13722E-07-5.83883E-05
 -1       241-8.26648E-04 2.50881E-04 2.42878E-04 1.47426E-06-1.02144E-06-5.89108E-05
 -1       242 4.54623E-07-6.34277E-07 1.44250E-06 3.32590E-06-7.13728E-06-8.68002E-05
 -1       243-8.17569E-04 2.44069E-04 2.46889E-04 7.37034E-07-2.99092E-06-6.61962E-05
 -1       244-7.24877E-04 2.17119E-04 2.16992E-04-1.47548E-06 4.70716E-06-6.37910E-05
 -1       245-9.88395E-08 7.09712E-06-4.41531E-06-7.47950E-07-6.94165E-08-1.06347E-04
 -1       246-7.18631E-04 2.12807E-04 2.21766E-04 8.39222E-06 1.13858E-06-6.01805E-05
 -1       247-6.18884E-04 1.87616E-04 1.79385E-04 5.19386E-06 3.52975E-07-5.88859E-05
 -1       248-1.10474E-06-1.32172E-06 6.35754E-06-2.98572E-06 2.06318E-07-1.04260E-04
 -1       249-6.14942E-04 1.84550E-04 1.86276E-04 2.34901E-06-3.99424E-06-6.55052E-05
 -1       250-5.15199E-04 1.54643E-04 1.52911E-04 2.28951E-06 4.03841E-06-6.55237E-05
 -1       251-3.56550E-07 1.07857E-05-6.86292E-06-3.86417E-06-1.24916E-06-1.02958E-04
 -1       252-5.08249E-04 1.50061E-04 1.58443E-04 2.65727E-06-1.10571E-06-6.14126E-05
 -1       253-4.16173E-04 1.25956E-04 1.22368E-04 1.63273E-06 1.94308E-06-6.09780E-05
 -1       254 1.13620E-06-8.88750E-06 6.39447E-06 3.97215E-07 4.34258E-07-1.06781E-04
 -1       255-4.07208E-04 1.19863E-04 1.28201E-04 9.02157E-06-5.07660E-07-6.11924E-05
 -1       256-3.11467E-04 9.38071E-05 8.69876E-05 4.39083E-06 3.32230E-07-5.66658E-05
 -1       257 2.63684E-06 1.21188E-06-5.10960E-06 4.13195E-06 4.91403E-08-1.03557E-04
 -1       258-3.09724E-04 9.35441E-05 9.50113E-05 3.99340E-06-2.97085E-06-6.30805E-05
 -1       259-2.10450E-04 6.48141E-05 5.63588E-05 6.85069E-06 1.55288E-07-6.43830E-05
 -1       260-3.13440E-06 1.08623E-05-4.41760E-06 1.16953E-06 6.93683E-07-1.01244E-04
 -1       261-2.02374E-04 5.93262E-05 6.07798E-05-2.78136E-06-2.98483E-06-6.28473E-05
 -1       262-1.13170E-04 3.57057E-05 2.97452E-05-4.30078E-07 6.85203E-07-6.35328E-05
 -1       263 7.23509E-07 1.33550E-06 5.92071E-07 1.23608E-06-3.46628E-06-1.04290E-04
 -1       264 1.46617E-07 4.92919E-06-3.53033E-06 1.87032E-07 2.82579E-06-1.07309E-04
 -1       265 8.23746E-04-2.51712E-04-2.45734E-04 1.44186E-07 3.89961E-07-6.26860E-05
 -1       266 9.07295E-04-2.75234E-04-2.66949E-04-4.05114E-08-1.41591E-06-5.96001E-05
 -1       267 7.23667E-04-2.18354E-04-2.14564E-04-1.55623E-06 1.79457E-06-6.13191E-05
 -1       268 8.15871E-04-2.42987E-04-2.50103E-04-2.41451E-06-2.78318E-07-6.18101E-05
 -1       269 6.17644E-04-1.85285E-04-1.82395E-04-4.14276E-06 2.97282E-06-6.24951E-05
 -1       270 7.13988E-04-2.13260E-04-2.19721E-04-7.02618E-06-2.13738E-06-6.37822E-05
 -1       271 5.15384E-04-1.56088E-04-1.48712E-04-5.26350E-06-1.24204E-07-5.83203E-05
 -1       272 6.13902E-04-1.82586E-04-1.90127E-04-5.69117E-06-2.58211E-07-5.82329E-05
 -1       273 4.15651E-04-1.24541E-04-1.24257E-04 1.60871E-06 4.85350E-06-6.35196E-05
 -1       274 5.08978E-04-1.51710E-04-1.54699E-04-8.41132E-07-3.12758E-06-6.63677E-05
 -1       275 3.08501E-04-9.43697E-05-8.93969E-05-4.04373E-06 2.38643E-06-6.40126E-05
 -1       276 4.07339E-04-1.21166E-04-1.27401E-04-5.15178E-06 4.89232E-07-6.28478E-05
 -1       277 2.07347E-04-6.58217E-05-5.47079E-05-8.82133E-06-1.66275E-06-6.21877E-05
 -1       278 3.06160E-04-9.22123E-05-9.71634E-05-4.64578E-06-5.36165E-07-5.76260E-05
 -1       279 1.09663E-04-3.37768E-05-3.26777E-05 3.45494E-06 4.02349E-06-6.62025E-05
 -1       280 2.00217E-04-5.91851E-05-6.00401E-05 5.11694E-06-5.03865E-06-6.42643E-05
 -1       281-3.22164E-04 9.53812E-05 9.92523E-05-1.51760E-06-3.11692E-07-1.07056E-05
 -1       282-5.28633E-04 1.57718E-04 1.59297E-04 3.22624E-07-1.45950E-06-3.18689E-05
 -1       283-9.04247E-04 2.70272E-04 2.69675E-04-1.28084E-06 1.40130E-07-2.97406E-05
 -1       284-1.75062E-03 5.20339E-04 5.29425E-04-1.06944E-06 9.14319E-08-2.94830E-05
 -1       285-1.33775E-03 4.02138E-04 4.01013E-04-3.00547E-07 3.72793E-07-3.59470E-05
 -1       286-1.13191E-03 3.40039E-04 3.38769E-04 3.16721E-08 4.11267E-08-2.94712E-05
 -1       287-7.25714E-04 2.18576E-04 2.16908E-04 2.49131E-07 5.92899E-07-3.79629E-05
 -1       288-1.53407E-03 4.58280E-04 4.60492E-04 1.35017E-06-9.73161E-07-3.31981E-05
 -1       289-1.32814E-04 4.64105E-05 3.08292E-05 3.63710E-07-4.69432E-08-1.41567E-06
 -1       290-2.04256E-03 5.59839E-04 7.64552E-04-1.47497E-07 8.96505E-08-4.05021E-05
 -1       291-1.85904E-03 2.77240E-04 5.46665E-04-1.22905E-07 1.08169E-08-1.92796E-04
 -1       292-1.92961E-03 3.63128E-04 5.98923E-04-1.49724E-04-6.91971E-05-8.35179E-05
 -1       293-1.88661E-03 5.78755E-04 5.85197E-04 3.75244E-05 2.91004E-05-6.01495E-07
 -1       294-1.92989E-03 3.63197E-04 5.98935E-04 1.49531E-04 6.92390E-05-8.35264E-05
 -1       295-1.88730E-03 5.78744E-04 5.85102E-04-3.80904E-05-2.87196E-05-1.03312E-06
 -1       296-6.96912E-05 2.48155E-05 1.65313E-05 4.36325E-07 7.17214E-07-7.05295E-06
 -1       297-6.80921E-05 2.43014E-05 1.59301E-05 4.95867E-06-2.42921E-06-3.08774E-06
 -1       298-1.76954E-04 5.11635E-05 5.65614E-05 6.47255E-06 3.07579E-06-6.74277E-06
 -1       299-6.85183E-05 2.61144E-05 1.50016E-05-4.56424E-06 3.10186E-06-4.83388E-06
 -1       300-1.82462E-04 5.51325E-05 5.56047E-05-6.39201E-06-2.40414E-06-6.86599E-06
 -1       301-1.68727E-03 5.09477E-04 5.01301E-04 1.27057E-05-4.20247E-06-7.46351E-06
 -1       302-1.79011E-03 5.22504E-04 5.35045E-04 4.55103E-06-5.77848E-06-1.24068E-05
 -1       303-1.83559E-03 5.46305E-04 5.73426E-04-8.86145E-07 1.27079E-07-8.64285E-06
 -1       304-1.47462E-03 4.48168E-04 4.35523E-04 1.37043E-05-6.09524E-06-1.15240E-05
 -1       305-1.60823E-03 4.77002E-04 4.87124E-04 6.75086E-06 5.14447E-06-1.43689E-05
 -1       306-1.64867E-03 4.91174E-04 5.03777E-04 7.46973E-07 3.54728E-06-2.47139E-05
 -1       307-1.27879E-03 3.85251E-04 3.79258E-04 1.46713E-05-3.51383E-06-1.57091E-05
 -1       308-1.39481E-03 4.17209E-04 4.22948E-04 1.51626E-05 3.39882E-06-1.57228E-05
 -1       309-1.42775E-03 4.19740E-04 4.26303E-04 1.00802E-06 4.07991E-07-3.24436E-05
 -1       310-1.06651E-03 3.26067E-04 3.14093E-04 8.88884E-06-5.44964E-06-7.56828E-06
 -1       311-1.19504E-03 3.52461E-04 3.64477E-04 9.07229E-06 5.93667E-06-7.88734E-06
 -1       312-1.24885E-03 3.81820E-04 3.76466E-04 4.09435E-07 4.53887E-07-3.13761E-05
 -1       313-8.59144E-04 2.61006E-04 2.52306E-04 1.40374E-05-3.45696E-06-1.00391E-05
 -1       314-9.84200E-04 2.90981E-04 3.00316E-04 9.47436E-06 3.75538E-06-1.16328E-05
 -1       315-1.02150E-03 2.99008E-04 3.00557E-04-1.98724E-07-6.63668E-08-2.44071E-05
 -1       316-6.56167E-04 2.02932E-04 1.88755E-04 1.80411E-05-5.71697E-06-8.75138E-06
 -1       317-7.81577E-04 2.29157E-04 2.39204E-04 1.22125E-05 3.08148E-06-1.66844E-05
 -1       318-8.20565E-04 2.36990E-04 2.51427E-04-2.79687E-06 5.51586E-07-3.51685E-05
 -1       319-4.55897E-04 1.41936E-04 1.28529E-04 1.64213E-05-6.56394E-06-1.02404E-05
 -1       320-5.78234E-04 1.69323E-04 1.78436E-04 1.00545E-05 4.09896E-06-1.66558E-05
 -1       321-6.18323E-04 1.85363E-04 1.91160E-04-1.04598E-06 2.33759E-06-2.86478E-05
 -1       322-2.53797E-04 7.73943E-05 7.18831E-05 7.01370E-06-5.38708E-06-1.01533E-05
 -1       323-3.69470E-04 1.10499E-04 1.16138E-04 7.42771E-06 3.35751E-06-1.53906E-05
 -1       324-4.17288E-04 1.24903E-04 1.25189E-04 4.15682E-07 4.29384E-06-1.31428E-05
 -1       325-2.23218E-04 7.39205E-05 6.73026E-05 2.62242E-06-1.24742E-06-4.94145E-06
 -1       326-1.68720E-03 5.08809E-04 5.01944E-04-7.80402E-06 5.06534E-06-1.39183E-05
 -1       327-1.79400E-03 5.25739E-04 5.35844E-04-6.69161E-06 5.21022E-06-1.58525E-05
 -1       328-1.47803E-03 4.50212E-04 4.36550E-04-1.11664E-05 5.16247E-06-9.32577E-06
 -1       329-1.61026E-03 4.76778E-04 4.88316E-04-1.11307E-05-6.24550E-06-8.12081E-06
 -1       330-1.28058E-03 3.86281E-04 3.79619E-04-1.52331E-05 3.83867E-06-1.63109E-05
 -1       331-1.39447E-03 4.16655E-04 4.23260E-04-1.47570E-05-2.83622E-06-1.65162E-05
 -1       332-1.06083E-03 3.24846E-04 3.12218E-04-9.94779E-06 5.73725E-06-8.99785E-06
 -1       333-1.20143E-03 3.54268E-04 3.66361E-04-1.01676E-05-6.04132E-06-9.29353E-06
 -1       334-8.61342E-04 2.62539E-04 2.52267E-04-1.49853E-05 4.03589E-06-1.11434E-05
 -1       335-9.83225E-04 2.90712E-04 2.99725E-04-1.09864E-05-3.91143E-06-1.22546E-05
 -1       336-6.57570E-04 2.01693E-04 1.90412E-04-1.22709E-05 7.38759E-06-1.65023E-05
 -1       337-7.83874E-04 2.34385E-04 2.39464E-04-1.28693E-05-3.31863E-06-2.05713E-05
 -1       338-4.58679E-04 1.40426E-04 1.32109E-04-1.04811E-05 3.72968E-06-1.52389E-05
 -1       339-5.84871E-04 1.70332E-04 1.82249E-04-1.79671E-05-7.19083E-06-1.10090E-05
 -1       340-2.57428E-04 7.98603E-05 7.46107E-05-5.69343E-06 4.22464E-06-7.95028E-06
 -1       341-3.69407E-04 1.06386E-04 1.17632E-04-1.09692E-05-4.40222E-06-7.59314E-06
 -1       342 3.02865E-04-9.04210E-05-9.13555E-05 6.46298E-07-1.24513E-06-6.88041E-06
 -1       343 5.05920E-04-1.52657E-04-1.50255E-04-1.42379E-06-4.28221E-07-3.23802E-05
 -1       344 6.88608E-04-2.06461E-04-2.03687E-04-7.13067E-08-4.42943E-07-3.20269E-05
 -1       345 1.32929E-03-4.00334E-04-3.96449E-04 2.11698E-07 1.98819E-06-3.95621E-05
 -1       346 1.13197E-03-3.40071E-04-3.39476E-04 5.78117E-07 1.30655E-07-3.09544E-05
 -1       347 9.18043E-04-2.74873E-04-2.75096E-04 1.44834E-07-1.50875E-06-3.19172E-05
 -1       348 1.73170E-03-5.14337E-04-5.21679E-04-2.73481E-07-6.67703E-07-2.91172E-05
 -1       349 1.52236E-03-4.55981E-04-4.55524E-04-2.45941E-07-3.75730E-07-2.96739E-05
 -1       350 1.22192E-04-4.28878E-05-2.37085E-05-3.23339E-07 4.71499E-07-6.28488E-06
 -1       351 2.04291E-03-5.60437E-04-7.64500E-04 3.61589E-07-3.87580E-09-4.07370E-05
 -1       352 1.92973E-03-3.63426E-04-5.98960E-04 1.49928E-04-6.92665E-05-8.34947E-05
 -1       353 1.85914E-03-2.77400E-04-5.46600E-04 1.90832E-07 3.14099E-08-1.92802E-04
 -1       354 1.88607E-03-5.78784E-04-5.84861E-04-3.76062E-05 2.86733E-05-8.21577E-07
 -1       355 1.93011E-03-3.63508E-04-5.99035E-04-1.49571E-04 6.92292E-05-8.36513E-05
 -1       356 1.88672E-03-5.79321E-04-5.84768E-04 3.78118E-05-2.88093E-05-8.86286E-07
 -1       357 7.53164E-05-2.61266E-05-1.74460E-05-9.59689E-08 2.00089E-07-1.02759E-05
 -1       358 7.02947E-05-2.41259E-05-1.58426E-05-6.54580E-06-2.13664E-06-7.84090E-06
 -1       359 1.71628E-04-5.26478E-05-5.27826E-05-6.77067E-06 3.53062E-06-8.30779E-06
 -1       360 7.03948E-05-2.36578E-05-1.59715E-05 6.05414E-06 2.19217E-06-8.09420E-06
 -1       361 1.73214E-04-5.28553E-05-5.33937E-05 5.54767E-06-2.93590E-06-7.21805E-06
 -1       362 1.68426E-03-5.09406E-04-5.00486E-04-9.26448E-06-4.25463E-06-9.69734E-06
 -1       363 1.79231E-03-5.22888E-04-5.35822E-04-3.06367E-06-3.87518E-06-1.04463E-05
 -1       364 1.83993E-03-5.46315E-04-5.74204E-04 1.68356E-07-3.41053E-07-6.23889E-06
 -1       365 1.47814E-03-4.47175E-04-4.38184E-04-1.47271E-05-4.17464E-06-1.01779E-05
 -1       366 1.60123E-03-4.76556E-04-4.85182E-04-9.86730E-06 3.33416E-06-1.16780E-05
 -1       367 1.64012E-03-4.83900E-04-4.86848E-04-4.61450E-07-7.33078E-07-2.53641E-05
 -1       368 1.27080E-03-3.86027E-04-3.74691E-04-1.09762E-05-5.39888E-06-1.92006E-05
 -1       369 1.40398E-03-4.17772E-04-4.27129E-04-1.33723E-05 6.46395E-06-1.81703E-05
 -1       370 1.43891E-03-4.20046E-04-4.36396E-04-2.07062E-06-1.81354E-07-3.28574E-05
 -1       371 1.07063E-03-3.26380E-04-3.15265E-04-1.36427E-05-3.72220E-06-7.28249E-06
 -1       372 1.19080E-03-3.52099E-04-3.63796E-04-1.40007E-05 3.80884E-06-6.90577E-06
 -1       373 1.23552E-03-3.74299E-04-3.63077E-04-7.87299E-07-2.09669E-06-3.21091E-05
 -1       374 8.56622E-04-2.63181E-04-2.50695E-04-1.25296E-05-5.91617E-06-1.13774E-05
 -1       375 9.91720E-04-2.92494E-04-3.01818E-04-5.97718E-06 5.22550E-06-1.42917E-05
 -1       376 1.03345E-03-3.08239E-04-3.14935E-04 2.41044E-06 3.05750E-06-2.84383E-05
 -1       377 6.55466E-04-2.01000E-04-1.91750E-04-1.38231E-05-3.87229E-06-1.21685E-05
 -1       378 7.77699E-04-2.28967E-04-2.38241E-04-1.01870E-05 5.29909E-06-9.82408E-06
 -1       379 8.17740E-04-2.34311E-04-2.38392E-04 8.90082E-07 4.09900E-07-2.13164E-05
 -1       380 4.58745E-04-1.41205E-04-1.31887E-04-1.78185E-05-3.34298E-06-1.13395E-05
 -1       381 5.71559E-04-1.68991E-04-1.76034E-04-1.36603E-05 4.10455E-06-1.23421E-05
 -1       382 6.10984E-04-1.74296E-04-1.77791E-04 2.42143E-06-2.20392E-07-3.05947E-05
 -1       383 2.45206E-04-7.69751E-05-6.92917E-05-9.09248E-06-5.37111E-06-8.49572E-06
 -1       384 3.71263E-04-1.07590E-04-1.17179E-04-5.76754E-06 5.54513E-06-1.30024E-05
 -1       385 4.25967E-04-1.23631E-04-1.26168E-04 3.60931E-06 4.11111E-06-1.45127E-05
 -1       386 2.14700E-04-6.17466E-05-6.10962E-05-5.41402E-07-9.66189E-07-4.42003E-06
 -1       387 1.79378E-03-5.22018E-04-5.36954E-04 3.81499E-06 3.02660E-06-1.13563E-05
 -1       388 1.67950E-03-5.06916E-04-4.99733E-04 9.12162E-06 3.78798E-06-1.02641E-05
 -1       389 1.60000E-03-4.75827E-04-4.84426E-04 1.04807E-05-4.01020E-06-1.19309E-05
 -1       390 1.47734E-03-4.47424E-04-4.37568E-04 1.44178E-05 3.69942E-06-1.05387E-05
 -1       391 1.40187E-03-4.14355E-04-4.25777E-04 1.24351E-05-4.91763E-06-1.55594E-05
 -1       392 1.26796E-03-3.86638E-04-3.73152E-04 1.76470E-05 6.96729E-06-1.14687E-05
 -1       393 1.19380E-03-3.56909E-04-3.63341E-04 9.83790E-06-4.80017E-06-1.84999E-05
 -1       394 1.06929E-03-3.22775E-04-3.15447E-04 9.43153E-06 5.39535E-06-1.82955E-05
 -1       395 9.92880E-04-2.92196E-04-3.03485E-04 1.15377E-05-6.85655E-06-7.95852E-06
 -1       396 8.60680E-04-2.65275E-04-2.52212E-04 1.13647E-05 5.20902E-06-8.88968E-06
 -1       397 7.79842E-04-2.28391E-04-2.39110E-04 1.04291E-05-6.47697E-06-1.05970E-05
 -1       398 6.53171E-04-1.98398E-04-1.91785E-04 1.38477E-05 3.68286E-06-1.27515E-05
 -1       399 5.74905E-04-1.70399E-04-1.78637E-04 1.59566E-05-6.62870E-06-1.46715E-05
 -1       400 4.61330E-04-1.36720E-04-1.33995E-04 1.28385E-05 1.15554E-06-2.01042E-05
 -1       401 3.68658E-04-1.05797E-04-1.18217E-04 8.52088E-06-5.61356E-06-4.55171E-06
 -1       402 2.51752E-04-8.11487E-05-6.97555E-05 6.32070E-06 4.43381E-06-6.80073E-06
 -1       403 1.84183E-06-1.79848E-06 3.45588E-06 6.26722E-07 2.91380E-06-8.60664E-05
 -1       404-7.60231E-06 1.16052E-06 4.27512E-06-7.46637E-08 3.51408E-08-9.65581E-05
 -1       405-6.78324E-05 2.11112E-05 1.88235E-05 2.90227E-06-3.03763E-06-5.90517E-05
 -1       406-7.14192E-05 2.20575E-05 2.01321E-05-1.20132E-06 3.66366E-06-5.81215E-05
 -1       407-8.84892E-05 2.69978E-05 2.56886E-05 8.03896E-07 7.42870E-07-5.04526E-05
 -1       408 1.22607E-04-3.59241E-05-3.98031E-05-3.21123E-06-3.74561E-06-5.70902E-05
 -1       409 1.28574E-04-4.06275E-05-3.83492E-05-8.31892E-07 2.52111E-08-5.34084E-05
 -1       410 5.64794E-05-1.99049E-05-1.56345E-05 2.19393E-06 2.70843E-06-5.91760E-05
 -1       411 5.67260E-05-1.89060E-05-1.48833E-05-2.49100E-06-1.23150E-06-5.89811E-05
 -1       412-9.06040E-04 2.65042E-04 2.71137E-04-1.18398E-06-1.20053E-05-6.26793E-05
 -1       413-1.02741E-03 3.10306E-04 3.34889E-04-6.36766E-06-5.16534E-05-7.84448E-05
 -1       414-1.02684E-03 3.10269E-04 3.34727E-04 6.31019E-06 5.18831E-05-7.89253E-05
 -1       415-6.32405E-07 1.09318E-07 4.33671E-09 2.94684E-07 3.14286E-07-1.09098E-04
 -1       416-9.03429E-04 2.64804E-04 2.70584E-04-1.74872E-06 1.19030E-05-6.27740E-05
 -1       417 1.02732E-03-3.10665E-04-3.34724E-04 6.45173E-06-5.17875E-05-7.86338E-05
 -1       418 9.05835E-04-2.64288E-04-2.69716E-04-1.01446E-06-1.24295E-05-5.85297E-05
 -1       419 1.02642E-03-3.10513E-04-3.34338E-04-5.88099E-06 5.21114E-05-7.90651E-05
 -1       420 9.03529E-04-2.64691E-04-2.69160E-04 2.34429E-06 1.27973E-05-5.90493E-05
 -1       421-7.04945E-06 7.62959E-07 3.39220E-06 1.10128E-08 2.25176E-06-9.51293E-05
 -1       422-9.44778E-05 3.19636E-05 2.33447E-05-1.46226E-06-2.30159E-06-5.83104E-05
 -1       423 1.41741E-04-4.66733E-05-4.05796E-05-3.23736E-06 2.42032E-06-5.70069E-05
 -1       424-1.22947E-05 2.13049E-06 4.33114E-06-2.85869E-06-1.10889E-06-6.05543E-05
 -1       425-2.54555E-06-8.57473E-07 2.26365E-06-2.39597E-06-3.45219E-06-8.13069E-05
 -1       426-1.82734E-04 5.00810E-05 5.73692E-05-1.58120E-06-3.00989E-06-5.62155E-05
 -1       427-1.55689E-04 4.80572E-05 4.40672E-05 4.39469E-06 1.11386E-06-5.77785E-05
 -1       428-2.24025E-04 7.56021E-05 6.94593E-05 4.09304E-06-2.10356E-06-6.13208E-05
 -1       429-2.72349E-04 7.91637E-05 8.23809E-05-1.44484E-06 4.45492E-07-6.59114E-05
 -1       430 3.27105E-04-9.80556E-05-9.74660E-05 2.79867E-07 5.95864E-06-6.26331E-05
 -1       431 3.43630E-05-1.51377E-05-1.57110E-05-2.28191E-06-1.81338E-06-5.84321E-05
 -1       432-1.45209E-05 3.03441E-06 3.98464E-06 2.24814E-06 2.06009E-06-6.19497E-05
 -1       433 2.52951E-04-7.46688E-05-7.75526E-05 2.36789E-06-1.89564E-06-6.65067E-05
 -1       434-2.92175E-04 8.31800E-05 9.02540E-05-9.70179E-07-7.23043E-06-6.16867E-05
 -1       435 3.36587E-04-1.04947E-04-1.00179E-04 3.77455E-07-1.68956E-06-6.61426E-05
 -1       436 1.54812E-04-4.65486E-05-4.70676E-05 5.06065E-06-1.69852E-06-6.14239E-05
 -1       437 1.81201E-04-4.93997E-05-5.45760E-05-1.38914E-06-3.16291E-06-5.21550E-05
 -1       438-1.67751E-04 4.81919E-05 5.06826E-05-3.72706E-06 4.08525E-07-6.04338E-05
 -1       439-3.68943E-04 1.11745E-04 1.09790E-04 5.37316E-07-2.20902E-07-6.84598E-05
 -1       440-2.48417E-05 5.13439E-06 7.30756E-06-3.66102E-06-3.76266E-07-6.20105E-05
 -1       441 2.24014E-04-7.50728E-05-6.68374E-05-3.68544E-06-2.82422E-06-6.71379E-05
 -1       442-8.38371E-04 2.55921E-04 2.54712E-04-5.20486E-06-3.68302E-07-6.25073E-05
 -1       443 8.43322E-04-2.49312E-04-2.60432E-04 7.71097E-06-4.53132E-06-6.69154E-05
 -1       444 8.71086E-04-2.61746E-04-2.61215E-04 2.43385E-06 2.62376E-06-6.75903E-05
 -1       445-8.73382E-04 2.60400E-04 2.64024E-04-1.73991E-06-8.77756E-08-6.87363E-05
 -1       446-7.81115E-04 2.35452E-04 2.30579E-04 1.79600E-06-1.85023E-06-6.96041E-05
 -1       447 3.31448E-05-1.11021E-05-2.09020E-05-1.44488E-06-2.56452E-06-5.40515E-05
 -1       448 8.39117E-04-2.51540E-04-2.53105E-04-4.91140E-06 4.96234E-06-6.44791E-05
 -1       449 8.59162E-04-2.57482E-04-2.59240E-04-2.98159E-06-7.62633E-07-6.89394E-05
 -1       450-8.05942E-04 2.39137E-04 2.42703E-04 4.75803E-06-6.85849E-06-6.26148E-05
 -1       451-2.57528E-04 7.81684E-05 7.70325E-05 1.23402E-06 2.19323E-06-6.63257E-05
 -1       452 2.45403E-04-7.87036E-05-7.29801E-05-2.90793E-06 2.87184E-06-6.66375E-05
 -1       453 3.27648E-04-9.69415E-05-1.02568E-04 3.20469E-06-4.14124E-06-6.84659E-05
 -1       454 2.11225E-06 2.10203E-06-8.99928E-08 1.29776E-06 1.86391E-07-6.13151E-05
 -1       455 7.61067E-04-2.30140E-04-2.28462E-04-2.22646E-06-1.26879E-06-6.70535E-05
 -1       456 4.29750E-04-1.28705E-04-1.33366E-04-3.04732E-06 3.93926E-06-6.32133E-05
 -1       457-2.67352E-06-3.03229E-06 5.71058E-07-1.81485E-06 1.58883E-07-6.07008E-05
 -1       458-4.26197E-04 1.34060E-04 1.28443E-04 3.61752E-06 1.13443E-06-6.42074E-05
 -1       459 3.09945E-05-8.39487E-06-1.89193E-05-2.78916E-06 6.02203E-07-5.88708E-05
 -1       460 3.45100E-04-1.08623E-04-1.01404E-04-5.26960E-07 3.72696E-06-6.50627E-05
 -1       461-3.60930E-04 1.09222E-04 1.08550E-04 1.55256E-06 1.91353E-06-6.89346E-05
 -1       462 4.27354E-04-1.27999E-04-1.33506E-04 4.02501E-06-3.15611E-06-6.51327E-05
 -1       463-3.22942E-04 1.04860E-04 9.71629E-05-1.68304E-08-4.76307E-07-6.17190E-05
 -1       464 4.71958E-04-1.43490E-04-1.37791E-04-1.55467E-06-2.85520E-06-6.89869E-05
 -1       465-4.52883E-04 1.37619E-04 1.35628E-04 1.29809E-06-9.02134E-07-6.69751E-05
 -1       466-4.22884E-04 1.32814E-04 1.27519E-04-1.85135E-06-7.01070E-07-6.61564E-05
 -1       467 4.61329E-04-1.39645E-04-1.36346E-04 2.74259E-06 3.65744E-06-6.70210E-05
 -1       468-4.50808E-04 1.38848E-04 1.35042E-04-1.06004E-06 1.61585E-06-6.68357E-05
 -1       469-3.33356E-05 1.25750E-05 2.07933E-05 9.54209E-07-2.75759E-06-5.18359E-05
 -1       470-5.35824E-04 1.58376E-04 1.66675E-04-8.38467E-06-4.94449E-06-6.52982E-05
 -1       471-8.82700E-04 2.63992E-04 2.65066E-04 5.07361E-06 1.15504E-06-6.85952E-05
 -1       472-7.38167E-04 2.19806E-04 2.27752E-04-2.64434E-06-4.19971E-06-6.32869E-05
 -1       473 6.68973E-04-2.01836E-04-2.00251E-04-1.69012E-06 8.73175E-07-6.72443E-05
 -1       474-3.37264E-05 1.03083E-05 1.98260E-05-1.30523E-06 2.52882E-07-5.59305E-05
 -1       475 7.33962E-04-2.27227E-04-2.20087E-04 2.37609E-06-1.89835E-06-6.31479E-05
 -1       476-5.29317E-04 1.60499E-04 1.59324E-04 4.31201E-06 6.18190E-06-6.32196E-05
 -1       477 4.95486E-04-1.47134E-04-1.48599E-04-5.85974E-06-7.52235E-06-6.11057E-05
 -1       478-5.65501E-04 1.70462E-04 1.69012E-04 1.78813E-06-1.02467E-07-6.82406E-05
 -1       479 5.64946E-04-1.70083E-04-1.69321E-04-5.45923E-06-1.39512E-07-6.86507E-05
 -1       480 4.77905E-07-1.89759E-07-2.82649E-07 5.96078E-06-1.30569E-07-6.05860E-05
 -1       481-7.70354E-04 2.31684E-04 2.29357E-04-2.04670E-06 3.27180E-06-6.67914E-05
 -1       482-6.68002E-04 2.01120E-04 2.00183E-04 1.81236E-06-3.66533E-08-6.71841E-05
 -1       483-1.63485E-06-9.15122E-08 7.54296E-07-1.89464E-06-1.66811E-07-6.57634E-05
 -1       484-5.95335E-04 1.82530E-04 1.71312E-04-6.85788E-06 5.89292E-06-6.27855E-05
 -1       485 3.48850E-05-1.60188E-05-1.84592E-05 1.10498E-06 2.82712E-06-5.34584E-05
 -1       486 7.60101E-04-2.31692E-04-2.27741E-04 8.12441E-07 1.46451E-06-6.63379E-05
 -1       487 7.33607E-04-2.26093E-04-2.19940E-04-1.76686E-06 8.89411E-07-6.50033E-05
 -1       488-7.39478E-04 2.20774E-04 2.27682E-04 6.82586E-06 4.13230E-06-6.36677E-05
 -1       489 6.34420E-04-1.93400E-04-1.88799E-04-1.23025E-06 6.41018E-06-6.33806E-05
 -1       490-6.00181E-04 1.80172E-04 1.78219E-04 2.65495E-06-6.88346E-06-6.01284E-05
 -1       491-6.68025E-04 2.02588E-04 1.99675E-04-1.50350E-06 3.07266E-07-6.75993E-05
 -1       492 6.59433E-04-1.98310E-04-1.98909E-04 1.31942E-06-1.44536E-06-6.86580E-05
 -1       493-5.64721E-04 1.69766E-04 1.69331E-04-1.03797E-06 2.19418E-07-6.68690E-05
 -1       494 5.65416E-04-1.69700E-04-1.69805E-04 4.11655E-09 7.09429E-08-6.91919E-05
 -1       495 5.98055E-04-1.72811E-04-1.79345E-04 6.22681E-06 9.48960E-07-6.20683E-05
 -1       496 5.29835E-04-1.64725E-04-1.59457E-04 5.46518E-06-1.00985E-07-6.44585E-05
 -1       497-9.84909E-07-6.91121E-07 2.20601E-06-6.64519E-07 9.28833E-07-9.10018E-05
 -1       498-5.05985E-07 1.09708E-06 7.27071E-07 1.18086E-06-1.10169E-06-9.15569E-05
 -1       499-4.46830E-05 1.93464E-05 1.12873E-05-8.23178E-07 3.06287E-07-4.48999E-05
 -1       500 4.50022E-05-1.95990E-05-8.85211E-06-1.97884E-08 6.81817E-08-4.98705E-05
 -1       501-9.82714E-04 2.68618E-04 3.49535E-04-1.31929E-07 3.42773E-08-3.84180E-05
 -1       502-4.00443E-08 1.36881E-08 7.85743E-08-5.34057E-08-3.21616E-05-9.05366E-05
 -1       503-4.71578E-08 3.96988E-08 1.17455E-07-1.61010E-08 3.24270E-05-9.09311E-05
 -1       504 9.82984E-04-2.68845E-04-3.49601E-04 2.06773E-07 2.99031E-08-3.84073E-05
 -1       505 5.56853E-05-1.90861E-05-1.83398E-05 2.49730E-06 3.17395E-06-3.48916E-05
 -1       506 6.41020E-06 2.75313E-06-9.25399E-06-1.90855E-06-6.01142E-07-8.56340E-05
 -1       507 7.26734E-06 3.06014E-06-9.66209E-06 2.61982E-06 1.43869E-06-8.45769E-05
 -1       508 5.58029E-05-1.92812E-05-1.84226E-05-2.73711E-06-2.88827E-06-3.46245E-05
 -1       509-5.41098E-05 1.88782E-05 1.97922E-05 3.74341E-07-3.34128E-06-3.02174E-05
 -1       510-8.22691E-06-1.68858E-06 1.10972E-05-2.19436E-07 7.35028E-07-8.68979E-05
 -1       511-7.47637E-06-3.59324E-06 1.20650E-05 1.41667E-06-4.73944E-07-8.57665E-05
 -1       512-5.24817E-05 1.92927E-05 1.84789E-05-6.63523E-07 4.53849E-06-3.07533E-05
 -1       513-1.40213E-03 2.79826E-04 4.77227E-04-6.41210E-05-4.16388E-05-4.81663E-05
 -1       514-4.03568E-04 6.54797E-05 1.08451E-04-4.76275E-05 3.11225E-05-5.12204E-05
 -1       515-1.40233E-03 2.79901E-04 4.77261E-04 6.38618E-05 4.16643E-05-4.81596E-05
 -1       516-4.03791E-04 6.55053E-05 1.08582E-04 4.75693E-05-3.09587E-05-5.08339E-05
 -1       517 1.40229E-03-2.80058E-04-4.77251E-04 6.42701E-05-4.17081E-05-4.81568E-05
 -1       518 4.03439E-04-6.53641E-05-1.08257E-04 4.76700E-05 3.12831E-05-5.10988E-05
 -1       519 4.03692E-04-6.54869E-05-1.08474E-04-4.77156E-05-3.10480E-05-5.06972E-05
 -1       520 1.40256E-03-2.80111E-04-4.77258E-04-6.38813E-05 4.17512E-05-4.82079E-05
 -3
 9999
